c gt1s2L SAT #2 TripleCMA mpfx_log (rebench 11.41s)
c chimera 15.28s, dumped by sat_top3_dissect.py
p cnf 200 889
166 191 -188 0
-17 -179 -156 0
33 194 67 0
128 165 -187 0
141 101 -78 0
-127 -121 -191 0
132 38 -55 0
98 -189 -176 0
198 171 -43 0
8 58 -79 0
63 27 -83 0
40 -28 -188 0
103 -107 -98 0
41 -28 -132 0
38 145 165 0
-194 -106 -181 0
92 56 -90 0
53 -189 -153 0
117 -164 -184 0
97 117 -166 0
135 -191 -41 0
62 77 -80 0
101 86 28 0
82 135 -29 0
136 -40 -128 0
-73 -191 -154 0
140 16 -106 0
155 -52 -35 0
16 10 14 0
58 117 -64 0
139 -135 -120 0
44 169 -12 0
83 -3 -24 0
-41 -197 -111 0
11 111 -102 0
188 156 106 0
175 92 -80 0
-156 -105 -119 0
34 -150 -120 0
-179 -142 -6 0
95 145 -173 0
22 173 -87 0
-149 -12 -95 0
15 -7 -142 0
171 15 -35 0
92 179 -39 0
161 90 -91 0
130 -177 -82 0
33 -35 -145 0
132 -54 -48 0
198 57 -51 0
19 16 60 0
169 51 32 0
175 -10 -157 0
9 60 39 0
-120 -130 -6 0
104 -23 -100 0
33 102 -160 0
23 -77 -130 0
-199 -17 -158 0
-72 -51 -101 0
36 -147 -103 0
112 -68 -27 0
127 -15 -76 0
3 81 -164 0
148 -185 -13 0
81 11 -110 0
108 197 -135 0
150 70 -67 0
96 120 -195 0
56 119 -47 0
51 194 -157 0
155 -12 -188 0
-80 -189 -11 0
9 2 -147 0
171 128 -173 0
75 -116 -199 0
196 -187 -33 0
72 -168 -113 0
43 18 57 0
80 64 -57 0
50 33 -49 0
96 49 -199 0
76 120 -190 0
48 94 60 0
6 186 -103 0
102 77 107 0
148 83 -58 0
-193 -19 -5 0
165 -146 -129 0
15 -101 -89 0
92 76 -150 0
174 145 144 0
76 66 -53 0
103 170 -157 0
63 -24 -59 0
79 95 -61 0
198 19 -44 0
-177 -175 -164 0
171 16 -39 0
136 -167 -113 0
200 -15 -150 0
196 77 -199 0
140 -161 -176 0
89 -17 -13 0
137 189 -158 0
20 21 -14 0
150 -1 -85 0
99 23 -96 0
-161 -97 -147 0
-152 -87 -7 0
195 31 160 0
147 -109 -171 0
104 185 -104 0
141 108 -152 0
169 180 -119 0
113 -127 -34 0
195 173 -183 0
121 119 -169 0
183 -127 -59 0
8 62 -174 0
104 196 33 0
132 -194 -104 0
-114 -28 -129 0
167 89 -3 0
-184 -45 -56 0
14 -8 -54 0
43 106 -180 0
41 76 -15 0
146 150 114 0
92 -86 -45 0
49 -120 -26 0
50 118 93 0
92 128 76 0
47 1 -30 0
-187 -192 -133 0
32 -148 -112 0
153 166 11 0
-105 -174 -64 0
11 21 -174 0
155 -23 -21 0
36 -43 -164 0
58 -14 -30 0
161 98 -4 0
121 65 -71 0
2 -141 -109 0
68 -75 -184 0
165 136 -73 0
63 -25 -142 0
85 97 -88 0
84 -192 -64 0
161 -117 -81 0
60 28 176 0
150 -50 -139 0
-96 -138 -197 0
44 -165 -40 0
17 115 -183 0
108 -37 -152 0
-45 -184 -47 0
-164 -57 -197 0
80 -136 -137 0
47 33 -109 0
-27 -82 -162 0
-3 -28 -168 0
151 185 -57 0
3 175 -4 0
177 -171 -39 0
10 95 -87 0
154 140 -31 0
41 103 -99 0
167 54 -51 0
21 129 -127 0
83 121 32 0
184 31 -82 0
-12 -191 -169 0
2 194 -129 0
85 -198 -88 0
194 -180 -69 0
198 -100 -158 0
62 119 -44 0
139 97 -135 0
-93 -53 -100 0
193 163 -32 0
-119 -63 -28 0
156 -84 -58 0
-184 -66 -46 0
-111 -81 -125 0
164 122 -9 0
180 74 32 0
186 -27 -103 0
-5 -168 -27 0
-85 -137 -79 0
50 69 -119 0
-16 -109 -72 0
170 -128 -102 0
61 -141 -18 0
81 144 50 0
127 134 -172 0
120 -65 -140 0
174 157 -69 0
150 -162 -54 0
94 -46 -184 0
11 6 -19 0
12 -83 -185 0
69 -79 -13 0
-91 -8 -22 0
9 38 -103 0
173 -123 -137 0
99 -9 -93 0
145 -48 -120 0
84 -80 -35 0
75 165 10 0
4 -155 -146 0
70 97 143 0
187 36 -70 0
110 -165 -39 0
197 52 -198 0
-30 -18 -176 0
94 21 -99 0
84 38 -189 0
156 -129 -123 0
56 173 -173 0
82 67 -101 0
20 164 113 0
200 168 -190 0
160 -64 -126 0
199 -1 -188 0
-51 -64 -79 0
172 11 -121 0
-13 -197 -122 0
-101 -167 -78 0
5 -9 -38 0
186 68 -168 0
196 32 -73 0
173 109 -192 0
95 -70 -4 0
194 81 -176 0
158 -126 -128 0
-155 -46 -105 0
66 92 -171 0
32 -143 -11 0
165 -153 -148 0
71 59 -122 0
88 -42 -17 0
59 33 84 0
107 126 -185 0
-189 -66 -198 0
31 115 -77 0
11 88 -35 0
53 33 -45 0
46 -164 -10 0
196 -171 -98 0
-61 -33 -199 0
-131 -141 -128 0
175 -173 -75 0
-70 -68 -194 0
79 -183 -132 0
53 154 -149 0
98 -134 -145 0
95 88 -45 0
26 -172 -74 0
-113 -125 -22 0
116 -6 -169 0
120 70 -56 0
187 -39 -114 0
28 42 70 0
-148 -61 -47 0
129 -64 -25 0
92 133 179 0
-177 -158 -43 0
128 96 196 0
119 -64 -85 0
86 38 -108 0
199 97 -103 0
141 37 98 0
13 60 -158 0
114 80 -44 0
82 173 -126 0
23 -44 -65 0
14 76 186 0
163 -197 -140 0
87 -173 -198 0
132 -92 -14 0
107 -115 -63 0
121 165 -181 0
169 77 -58 0
16 -159 -86 0
110 -139 -65 0
2 123 -166 0
2 -53 -73 0
120 100 -26 0
172 170 -134 0
-8 -28 -27 0
121 196 -44 0
-65 -123 -3 0
141 91 34 0
26 -156 -171 0
82 55 -3 0
136 173 -149 0
44 147 -87 0
45 -178 -188 0
6 -46 -29 0
102 -92 -60 0
179 -39 -69 0
194 114 -143 0
26 176 -192 0
-11 -175 -194 0
6 -47 -137 0
122 25 -193 0
191 130 32 0
63 -148 -79 0
72 106 -126 0
79 160 -191 0
134 -163 -49 0
178 -153 -74 0
147 153 32 0
190 -183 -23 0
36 -172 -119 0
-153 -49 -109 0
72 141 174 0
188 192 189 0
29 179 153 0
68 -96 -181 0
129 -99 -5 0
172 166 46 0
-125 -72 -42 0
-31 -64 -24 0
110 172 -4 0
-130 -46 -2 0
19 -83 -120 0
-61 -131 -45 0
55 -176 -14 0
52 130 -88 0
32 -72 -148 0
149 4 -126 0
47 160 175 0
128 88 -68 0
127 184 -127 0
190 84 -14 0
54 196 -90 0
118 -189 -79 0
126 -126 -102 0
140 -80 -181 0
190 188 -185 0
93 152 45 0
106 21 -23 0
18 -6 -90 0
197 25 -75 0
4 -125 -17 0
91 4 -179 0
101 62 -91 0
27 192 -18 0
94 185 17 0
104 -144 -129 0
-82 -139 -199 0
112 -200 -178 0
141 60 84 0
141 196 -33 0
127 -70 -138 0
172 -149 -181 0
193 -63 -47 0
121 177 176 0
40 -108 -31 0
-37 -157 -52 0
39 -185 -40 0
124 149 -34 0
58 28 -7 0
121 -11 -198 0
193 -95 -41 0
-180 -114 -78 0
192 139 -133 0
161 109 163 0
133 -195 -113 0
21 -59 -23 0
45 -194 -160 0
5 -144 -65 0
197 -124 -57 0
196 -125 -67 0
103 147 -172 0
101 89 59 0
-171 -195 -170 0
105 187 -69 0
-113 -103 -50 0
112 -50 -150 0
9 174 -116 0
-162 -81 -132 0
92 31 134 0
115 -189 -80 0
36 146 -104 0
41 38 8 0
15 -54 -149 0
50 -37 -96 0
182 85 -63 0
148 40 -150 0
52 -27 -96 0
5 41 94 0
77 109 -68 0
184 33 -122 0
100 -49 -37 0
-193 -24 -75 0
86 -78 -57 0
37 132 -26 0
159 -30 -5 0
97 -22 -102 0
171 -54 -188 0
167 30 -143 0
-110 -113 -158 0
104 173 116 0
94 -104 -27 0
107 52 152 0
136 -186 -91 0
130 -198 -89 0
15 -1 -82 0
36 -148 -123 0
-137 -198 -129 0
159 89 -25 0
132 -173 -58 0
127 -47 -95 0
156 85 -145 0
-76 -106 -138 0
114 -82 -122 0
127 149 -35 0
133 77 52 0
88 107 182 0
179 158 -114 0
-175 -86 -102 0
89 -140 -38 0
180 197 -45 0
183 -75 -164 0
177 28 107 0
70 87 -168 0
11 107 64 0
105 -199 -100 0
114 -22 -70 0
192 173 -76 0
-86 -93 -183 0
96 47 156 0
186 -117 -115 0
2 -165 -166 0
125 152 -163 0
135 91 181 0
129 5 183 0
87 77 -195 0
-146 -135 -8 0
180 56 -35 0
199 98 -58 0
-73 -144 -35 0
128 66 48 0
96 2 -51 0
180 78 156 0
113 -167 -14 0
-129 -115 -19 0
118 -172 -55 0
83 -15 -14 0
128 -156 -105 0
174 127 -37 0
42 91 34 0
102 -148 -65 0
153 34 -2 0
32 -144 -24 0
133 109 -114 0
27 -124 -59 0
79 -35 -85 0
128 -10 -137 0
124 122 -166 0
24 -177 -103 0
-147 -88 -22 0
84 -131 -42 0
-65 -54 -125 0
115 -24 -133 0
-168 -170 -65 0
77 -65 -174 0
56 61 -116 0
46 36 -15 0
-99 -44 -5 0
152 -27 -9 0
117 89 -59 0
48 60 158 0
106 -112 -46 0
131 99 -111 0
55 46 -84 0
38 41 -41 0
36 197 104 0
191 -174 -167 0
41 -96 -69 0
106 198 -68 0
138 -39 -154 0
6 -12 -195 0
164 -14 -109 0
23 -93 -102 0
71 33 64 0
36 6 192 0
27 38 -119 0
131 -185 -135 0
60 69 -183 0
59 128 -170 0
57 183 -22 0
168 150 -22 0
147 -50 -142 0
68 83 -81 0
45 146 -35 0
195 122 -3 0
197 59 -101 0
113 111 98 0
32 -76 -168 0
104 90 54 0
197 -147 -63 0
25 -183 -169 0
141 192 -178 0
145 160 -159 0
-14 -167 -74 0
136 192 -117 0
190 136 -184 0
137 133 -65 0
-102 -68 -92 0
44 131 -51 0
-119 -197 -104 0
114 172 174 0
122 -47 -1 0
27 39 -77 0
-35 -120 -58 0
153 -6 -28 0
192 -95 -169 0
38 80 125 0
157 113 195 0
154 -174 -162 0
200 -16 -151 0
163 -94 -85 0
31 108 -39 0
60 -127 -3 0
127 -91 -64 0
7 69 -69 0
98 -20 -107 0
192 106 -100 0
174 -78 -15 0
17 -174 -181 0
-45 -82 -87 0
132 184 115 0
181 125 -82 0
118 -97 -98 0
161 31 -109 0
123 -63 -94 0
86 145 175 0
173 133 -173 0
108 128 -75 0
118 -89 -121 0
20 -55 -19 0
182 -172 -184 0
125 -199 -181 0
126 -38 -133 0
114 107 -115 0
62 146 -181 0
134 -49 -14 0
-53 -181 -81 0
164 -74 -89 0
53 62 -182 0
69 -128 -7 0
134 187 101 0
33 -78 -118 0
136 -31 -40 0
7 159 193 0
-88 -22 -145 0
125 -166 -31 0
-162 -96 -119 0
187 37 -54 0
87 119 32 0
52 -77 -163 0
71 -70 -116 0
38 -166 -123 0
83 109 -90 0
4 -50 -9 0
91 -91 -2 0
34 200 -82 0
2 9 75 0
131 -172 -176 0
14 80 53 0
188 55 -5 0
90 -200 -67 0
100 99 -66 0
12 86 -159 0
25 -167 -171 0
6 -8 -39 0
151 -35 -63 0
-110 -120 -102 0
22 194 142 0
17 46 -132 0
189 -192 -193 0
63 -173 -182 0
94 -28 -6 0
77 164 21 0
47 -110 -35 0
165 7 -78 0
132 -199 -195 0
31 179 124 0
81 -152 -105 0
-35 -23 -131 0
72 8 -48 0
58 -126 -35 0
94 171 -86 0
104 124 118 0
89 101 -48 0
199 -48 -94 0
65 -86 -47 0
192 -173 -169 0
129 144 85 0
125 67 -49 0
19 192 -53 0
116 -73 -26 0
-12 -29 -14 0
36 -98 -17 0
157 84 -49 0
73 175 -88 0
188 187 -160 0
190 41 -106 0
50 -59 -78 0
82 24 37 0
77 136 -131 0
130 -179 -38 0
46 -37 -131 0
49 150 -81 0
131 178 191 0
-84 -78 -178 0
-189 -186 -125 0
58 -42 -10 0
5 -22 -120 0
180 115 -47 0
14 -47 -178 0
112 166 -33 0
88 163 -183 0
108 -108 -56 0
-100 -81 -185 0
165 144 -127 0
121 3 -158 0
18 117 -49 0
66 -149 -117 0
-77 -149 -10 0
49 -54 -140 0
144 -133 -193 0
142 143 93 0
190 45 139 0
128 41 -43 0
129 65 52 0
62 -89 -172 0
132 40 -23 0
18 -75 -33 0
31 -29 -184 0
175 41 -30 0
125 167 -73 0
84 -28 -49 0
13 -69 -33 0
63 127 -91 0
115 116 -119 0
90 -135 -163 0
39 42 -99 0
125 185 3 0
13 102 -70 0
133 14 55 0
107 -145 -10 0
40 -53 -65 0
9 -182 -45 0
135 -140 -184 0
2 164 -169 0
7 170 -158 0
78 162 -170 0
1 -7 -14 0
56 -118 -32 0
91 84 -187 0
174 81 -34 0
96 4 -61 0
67 -62 -157 0
161 193 -18 0
4 -193 -166 0
187 141 78 0
-138 -60 -123 0
4 -154 -20 0
93 55 136 0
45 167 75 0
161 -34 -13 0
103 173 -100 0
182 67 -143 0
110 156 99 0
130 50 -40 0
134 175 -196 0
147 16 54 0
82 -90 -100 0
79 104 -91 0
108 94 149 0
99 -17 -141 0
118 18 -191 0
163 107 95 0
1 25 -158 0
151 86 -80 0
-180 -1 -116 0
115 -102 -124 0
3 -62 -33 0
121 184 -198 0
106 80 -74 0
5 47 25 0
-66 -111 -196 0
36 -3 -134 0
85 10 161 0
100 -165 -23 0
129 162 -122 0
-133 -24 -135 0
164 30 -135 0
-116 -32 -118 0
154 200 -52 0
168 150 -13 0
1 120 10 0
111 -160 -149 0
168 -15 -160 0
143 37 -187 0
181 -26 -35 0
152 -79 -100 0
148 110 49 0
13 -140 -123 0
-24 -37 -127 0
101 169 154 0
49 124 -2 0
176 195 -23 0
52 -6 -34 0
55 -7 -174 0
41 -196 -105 0
-186 -17 -171 0
-31 -158 -73 0
-142 -132 -13 0
22 35 -123 0
150 -134 -171 0
181 -56 -1 0
-60 -71 -29 0
162 -69 -40 0
51 110 -160 0
6 168 -105 0
128 104 -188 0
3 -194 -157 0
85 -55 -58 0
131 119 141 0
149 -186 -44 0
161 33 -189 0
14 -58 -37 0
20 -185 -111 0
127 -65 -73 0
153 -110 -139 0
123 -136 -182 0
77 2 -142 0
36 -13 -77 0
93 -96 -170 0
31 44 -46 0
-29 -172 -144 0
168 137 -91 0
87 -16 -144 0
180 4 -85 0
52 145 -147 0
125 -29 -21 0
53 175 -35 0
-68 -8 -23 0
-116 -40 -37 0
32 105 -79 0
162 130 -103 0
80 -171 -170 0
170 155 -48 0
186 -126 -138 0
120 146 -2 0
-99 -10 -100 0
118 99 -77 0
144 -159 -199 0
188 -27 -113 0
5 -23 -91 0
96 163 -179 0
154 141 25 0
171 -71 -197 0
138 -55 -31 0
17 -6 -160 0
170 125 -134 0
106 170 114 0
8 -30 -53 0
136 60 -69 0
19 -32 -88 0
-77 -18 -108 0
151 72 -66 0
54 81 -23 0
-61 -122 -1 0
51 -56 -9 0
-7 -127 -107 0
93 84 -121 0
62 31 130 0
196 -140 -167 0
190 71 -7 0
158 -34 -115 0
117 129 -195 0
182 191 -151 0
159 10 -160 0
28 -56 -40 0
78 57 190 0
9 -57 -159 0
103 -19 -48 0
21 -70 -122 0
29 57 90 0
-98 -165 -6 0
85 13 -136 0
62 10 -57 0
66 134 -34 0
36 17 -59 0
146 -182 -27 0
165 -142 -65 0
183 175 -10 0
101 -158 -63 0
132 -182 -110 0
143 40 -93 0
-80 -145 -112 0
105 125 30 0
71 -190 -56 0
71 -169 -157 0
136 122 -45 0
134 52 -162 0
37 106 -48 0
123 42 177 0
89 107 -23 0
-129 -160 -186 0
104 166 135 0
-36 -200 -106 0
18 -192 -17 0
122 23 -105 0
133 143 -51 0
144 161 -14 0
172 174 -101 0
74 69 -168 0
-196 -95 -154 0
169 9 -140 0
53 85 -12 0
70 -62 -6 0
74 164 -37 0
52 36 -113 0
29 127 -16 0
76 89 -65 0
177 138 -62 0
-180 -159 -21 0
157 -34 -155 0
59 81 77 0
34 101 -155 0
137 81 -69 0
5 168 -63 0
97 133 -80 0
186 36 42 0
154 53 -183 0
110 -163 -173 0
88 -24 -119 0
107 -65 -49 0
115 152 105 0
78 -13 -191 0
115 92 -91 0
129 187 140 0
90 -66 -9 0
186 8 -108 0
182 -191 -124 0
53 -31 -61 0
174 -165 -120 0
51 25 59 0
-190 -52 -87 0
144 -121 -124 0
11 3 138 0
53 136 -15 0
-73 -75 -78 0
155 -116 -172 0
125 -138 -127 0
174 188 -87 0
94 139 -57 0
48 -112 -164 0
119 32 -140 0
134 145 31 0
12 48 -170 0
123 -131 -163 0
173 81 -88 0
119 -166 -169 0
116 -176 -143 0
69 -200 -155 0
197 102 55 0
-88 -34 -123 0
66 80 85 0
131 21 -26 0
44 -161 -169 0
159 124 -142 0
99 5 93 0
135 50 -187 0
114 6 -149 0
198 86 -58 0
116 184 -122 0
153 43 -91 0
67 132 173 0
