c gt1s2L SAT #1 MultiScaleCMA kcnf_neg (rebench 12.60s)
c chimera 16.44s, dumped by sat_top3_dissect.py
p cnf 200 1000
134 74 -181 0
108 26 43 0
2 170 60 0
29 63 108 0
35 -54 -37 0
35 -184 -1 0
37 -196 -85 0
134 -158 -48 0
169 197 7 0
190 -86 -156 0
42 53 190 0
190 -33 -72 0
-112 -100 -84 0
112 18 -3 0
107 -57 -128 0
80 147 -163 0
58 137 -68 0
13 -105 -90 0
-37 -63 -110 0
192 15 200 0
123 -173 -175 0
-126 -38 -198 0
48 -84 -62 0
26 -116 -176 0
-54 -33 -14 0
80 -18 -81 0
150 -46 -125 0
-30 -33 -182 0
-54 -74 -26 0
131 -159 -74 0
140 5 102 0
84 -60 -107 0
104 -70 -107 0
11 152 -135 0
-66 -131 -139 0
109 -125 -37 0
-9 -156 -11 0
194 34 -71 0
128 147 -18 0
109 13 -21 0
193 -40 -141 0
106 -165 -83 0
93 -92 -42 0
160 114 -139 0
-151 -139 -148 0
-156 -185 -124 0
89 -91 -70 0
89 185 108 0
57 31 79 0
28 159 -145 0
172 101 -62 0
134 -14 -170 0
93 -69 -175 0
15 -19 -9 0
11 -30 -78 0
-13 -155 -112 0
151 104 -63 0
122 -98 -19 0
178 111 -35 0
13 172 -13 0
184 -175 -25 0
13 -19 -78 0
104 -151 -83 0
152 64 68 0
133 -116 -7 0
146 58 -105 0
-195 -182 -50 0
20 -12 -140 0
132 -78 -88 0
141 76 -13 0
181 49 103 0
124 28 -139 0
-200 -180 -131 0
20 169 -118 0
3 111 -130 0
168 -170 -161 0
80 -189 -10 0
195 177 123 0
126 -184 -13 0
113 -159 -60 0
78 2 -148 0
111 140 -93 0
34 50 145 0
-84 -81 -161 0
90 10 -133 0
104 -153 -52 0
124 -174 -107 0
-178 -100 -183 0
118 81 77 0
7 -160 -88 0
11 123 -117 0
46 84 29 0
80 86 -38 0
50 142 -11 0
111 -124 -26 0
12 177 -193 0
153 -186 -98 0
108 -191 -128 0
120 185 -65 0
-20 -106 -90 0
157 122 69 0
39 -6 -130 0
180 139 -107 0
51 97 -191 0
87 13 -91 0
59 -128 -26 0
38 -26 -13 0
83 63 -127 0
70 56 -89 0
45 -36 -6 0
170 9 -114 0
140 -48 -68 0
108 147 -45 0
119 69 -114 0
151 76 139 0
-174 -101 -46 0
130 -85 -39 0
-93 -14 -154 0
-76 -157 -196 0
5 64 -2 0
5 178 -168 0
82 -82 -26 0
131 174 -196 0
44 186 -7 0
162 -6 -197 0
95 73 -162 0
2 153 -71 0
-82 -12 -80 0
11 22 -147 0
87 -81 -97 0
167 57 -49 0
182 80 -135 0
126 6 -38 0
-190 -120 -171 0
-12 -192 -37 0
-184 -18 -82 0
96 62 59 0
28 -142 -169 0
166 -155 -103 0
121 2 -103 0
42 -86 -104 0
4 -159 -58 0
102 -21 -62 0
99 -35 -166 0
108 -72 -174 0
152 12 25 0
140 170 -65 0
29 53 -74 0
199 -19 -100 0
127 -193 -191 0
161 42 20 0
-95 -56 -166 0
-72 -176 -102 0
183 26 -163 0
-172 -59 -19 0
131 37 143 0
83 49 -62 0
2 48 -119 0
145 166 195 0
166 181 -78 0
103 131 -68 0
28 -49 -66 0
35 -145 -4 0
167 -12 -54 0
-84 -92 -48 0
94 90 -169 0
29 40 -100 0
121 57 -86 0
40 -60 -19 0
37 44 -185 0
8 36 -35 0
42 132 -151 0
188 -92 -75 0
122 -26 -5 0
27 -90 -129 0
180 160 31 0
195 -132 -103 0
176 9 -128 0
15 76 -18 0
193 -1 -17 0
-135 -19 -109 0
188 -101 -35 0
-109 -64 -141 0
26 178 -72 0
18 124 -192 0
169 65 85 0
180 -68 -8 0
122 53 -55 0
56 -52 -131 0
99 159 -10 0
79 29 -2 0
5 -128 -22 0
195 190 -119 0
162 17 -138 0
-3 -131 -103 0
173 188 -156 0
-107 -110 -83 0
151 -181 -58 0
120 -125 -191 0
200 28 -71 0
120 -94 -124 0
97 7 -63 0
145 98 -148 0
51 -123 -2 0
115 58 -144 0
192 81 35 0
190 -122 -115 0
-76 -171 -38 0
96 93 57 0
145 82 -75 0
61 88 -28 0
142 94 -178 0
93 160 -25 0
149 84 -164 0
190 -66 -13 0
8 -199 -32 0
37 117 -31 0
-33 -180 -42 0
124 -37 -72 0
188 176 -1 0
71 -69 -182 0
-137 -198 -95 0
115 26 10 0
84 68 -36 0
104 -71 -6 0
38 162 -137 0
86 -187 -121 0
158 93 -92 0
157 84 -182 0
93 119 -140 0
78 -116 -132 0
199 91 109 0
2 108 -192 0
74 33 114 0
153 -147 -113 0
-104 -23 -118 0
139 -6 -57 0
7 179 -198 0
62 87 -122 0
-7 -184 -13 0
9 -194 -18 0
120 74 -149 0
170 181 31 0
21 176 -131 0
-88 -84 -193 0
72 119 102 0
9 107 -18 0
71 -109 -65 0
86 15 -160 0
1 -197 -66 0
154 -113 -112 0
121 -132 -158 0
178 95 -103 0
15 149 180 0
60 11 153 0
95 86 -185 0
186 45 191 0
34 -153 -51 0
69 -72 -75 0
49 -13 -186 0
194 -27 -68 0
128 84 -37 0
113 140 -86 0
2 -124 -152 0
4 151 -167 0
170 81 -200 0
4 13 -170 0
165 -123 -200 0
174 135 -86 0
-122 -37 -172 0
159 197 -31 0
186 -33 -195 0
66 99 -40 0
8 94 -187 0
-83 -136 -194 0
108 178 -51 0
199 -66 -93 0
87 -97 -58 0
134 -198 -50 0
56 -88 -176 0
188 147 -139 0
101 -98 -5 0
16 86 -121 0
8 81 180 0
-197 -170 -154 0
100 -39 -47 0
82 10 -191 0
180 176 -13 0
133 -129 -59 0
124 51 -173 0
-12 -170 -30 0
186 82 -27 0
107 -57 -3 0
12 149 -140 0
159 188 -101 0
61 -3 -7 0
4 196 -36 0
176 -72 -76 0
24 -10 -74 0
-165 -69 -102 0
12 61 -2 0
101 -106 -74 0
113 -161 -104 0
76 199 50 0
48 25 -87 0
143 89 -75 0
134 -4 -73 0
-102 -192 -38 0
-1 -16 -169 0
87 64 -36 0
139 -155 -120 0
134 -59 -55 0
189 -66 -89 0
-28 -27 -156 0
125 -29 -79 0
41 -135 -121 0
124 106 -82 0
43 3 8 0
7 174 -195 0
-128 -169 -193 0
111 -100 -42 0
164 -162 -66 0
113 21 -103 0
180 25 -169 0
-38 -54 -24 0
-77 -151 -150 0
176 40 -74 0
137 24 -10 0
-141 -198 -155 0
134 -6 -57 0
117 45 -35 0
181 89 -37 0
7 -66 -143 0
186 55 -152 0
140 -149 -75 0
-121 -37 -157 0
111 41 -190 0
54 -68 -22 0
192 -98 -176 0
138 67 120 0
140 111 -36 0
53 123 -97 0
-115 -24 -28 0
190 -99 -52 0
132 167 171 0
67 -88 -98 0
55 187 -92 0
187 -195 -59 0
115 107 164 0
11 44 -101 0
134 160 -60 0
91 -197 -164 0
108 34 87 0
182 59 -74 0
-9 -182 -136 0
179 -101 -21 0
26 188 -158 0
194 -33 -170 0
135 187 -147 0
-139 -104 -185 0
88 -23 -168 0
74 130 -189 0
107 1 -125 0
73 -3 -97 0
54 -63 -27 0
138 -98 -12 0
41 -12 -86 0
182 6 -161 0
111 169 2 0
51 93 6 0
100 124 -83 0
136 -60 -74 0
54 186 -136 0
14 -193 -106 0
116 -147 -148 0
163 108 75 0
141 -9 -88 0
103 40 183 0
94 -82 -17 0
186 -148 -197 0
111 -183 -126 0
106 -126 -166 0
172 161 -100 0
144 74 -14 0
143 81 61 0
24 -85 -159 0
197 -102 -71 0
103 -171 -190 0
94 184 -19 0
187 165 -155 0
188 -171 -139 0
199 -160 -9 0
120 18 -11 0
10 -1 -54 0
170 180 -123 0
6 -9 -108 0
89 64 -6 0
163 4 -67 0
107 -46 -42 0
82 140 -130 0
83 -54 -16 0
110 146 190 0
29 -29 -49 0
9 -177 -50 0
143 71 -152 0
52 -76 -85 0
187 133 -199 0
87 35 -107 0
-23 -75 -1 0
141 -177 -187 0
182 -127 -157 0
196 102 -91 0
61 98 -75 0
80 -192 -39 0
176 24 84 0
95 33 -96 0
69 132 31 0
49 138 -31 0
34 -10 -23 0
194 -42 -23 0
71 32 -198 0
12 108 -173 0
-87 -137 -98 0
-123 -3 -187 0
136 -75 -164 0
79 -161 -43 0
51 16 -33 0
-68 -106 -118 0
130 -168 -46 0
39 -184 -72 0
138 -53 -86 0
76 -92 -44 0
183 -86 -51 0
13 28 73 0
156 -178 -16 0
25 23 183 0
59 -161 -46 0
20 200 -136 0
104 59 -42 0
88 -166 -186 0
67 57 83 0
174 135 75 0
-198 -11 -25 0
183 33 -167 0
75 125 99 0
93 44 86 0
112 -107 -176 0
148 147 -178 0
11 103 -19 0
143 41 -178 0
182 100 -13 0
139 159 134 0
33 3 -83 0
17 -173 -127 0
85 196 -36 0
-124 -94 -99 0
27 60 -88 0
179 14 -47 0
79 -17 -166 0
121 34 -5 0
-154 -178 -72 0
199 114 -106 0
11 58 23 0
95 -19 -135 0
87 -53 -120 0
149 9 -19 0
11 131 -122 0
43 -101 -139 0
181 -10 -181 0
4 -110 -82 0
30 87 181 0
177 -39 -156 0
25 -62 -151 0
-107 -141 -149 0
97 -43 -150 0
-62 -56 -50 0
91 -119 -53 0
11 -52 -125 0
3 56 -152 0
-139 -45 -136 0
157 19 -125 0
41 -92 -131 0
-42 -132 -7 0
181 -118 -173 0
187 -105 -117 0
146 -71 -8 0
60 65 -17 0
20 79 -134 0
191 -45 -98 0
17 191 153 0
19 -26 -150 0
33 -50 -56 0
190 99 -133 0
10 -114 -45 0
31 -5 -43 0
69 18 -96 0
80 -122 -176 0
46 86 -70 0
-177 -49 -82 0
3 75 70 0
153 -3 -57 0
46 -50 -167 0
12 104 -94 0
142 163 107 0
177 48 -9 0
89 155 -84 0
26 140 67 0
185 36 120 0
29 24 60 0
77 -166 -82 0
186 108 -10 0
56 47 129 0
44 -168 -175 0
180 -126 -183 0
102 -129 -171 0
14 129 -120 0
188 141 -143 0
200 180 -184 0
44 -87 -7 0
36 -190 -161 0
18 113 43 0
130 -64 -194 0
4 -164 -181 0
-26 -171 -130 0
-168 -12 -193 0
29 160 -138 0
140 -102 -169 0
84 21 -137 0
121 35 -70 0
80 51 -35 0
9 52 -149 0
79 -89 -140 0
39 124 -137 0
34 -198 -75 0
123 122 134 0
35 147 124 0
-126 -64 -170 0
179 196 -167 0
103 -184 -142 0
199 87 120 0
8 56 154 0
136 7 -44 0
112 -150 -55 0
23 -164 -129 0
130 15 126 0
155 -69 -179 0
70 32 -44 0
75 -167 -113 0
-85 -90 -135 0
122 9 -98 0
164 -98 -139 0
157 117 -24 0
176 191 -123 0
-58 -40 -134 0
97 -99 -83 0
89 134 -50 0
64 -163 -177 0
153 -72 -137 0
113 -179 -186 0
163 57 -118 0
130 51 -81 0
138 105 -30 0
197 -178 -47 0
170 -153 -168 0
132 -91 -90 0
52 8 -69 0
138 -109 -106 0
82 52 -17 0
25 -154 -168 0
53 -61 -46 0
91 -164 -191 0
114 -62 -75 0
2 93 -193 0
-155 -128 -2 0
168 187 -86 0
88 -39 -117 0
11 25 -73 0
1 150 -58 0
-46 -90 -188 0
-39 -109 -50 0
147 -114 -45 0
-183 -20 -189 0
153 45 -119 0
41 -31 -115 0
190 -191 -38 0
49 -28 -147 0
-79 -98 -101 0
174 147 -143 0
-121 -127 -151 0
198 -5 -188 0
174 103 57 0
73 71 -129 0
174 151 -7 0
184 -43 -1 0
119 -148 -138 0
115 165 -116 0
32 165 -188 0
149 55 -182 0
75 138 -177 0
-26 -156 -75 0
183 172 -126 0
80 9 -2 0
153 157 -185 0
45 196 -72 0
105 87 177 0
71 -148 -34 0
165 52 -135 0
23 29 120 0
117 160 -144 0
185 13 -184 0
160 -198 -105 0
151 -98 -170 0
-184 -157 -127 0
81 178 31 0
12 22 -136 0
95 -15 -12 0
97 -190 -185 0
102 -7 -17 0
-7 -200 -159 0
81 73 87 0
79 51 -47 0
133 166 -16 0
-83 -88 -94 0
21 161 -146 0
88 200 -149 0
-136 -54 -182 0
172 -107 -6 0
176 113 -31 0
199 -112 -125 0
-191 -73 -171 0
48 76 -48 0
37 -32 -162 0
145 153 76 0
152 -9 -90 0
197 -175 -122 0
99 -7 -76 0
146 120 -181 0
88 -30 -28 0
164 -159 -25 0
115 -181 -41 0
155 136 -153 0
-148 -3 -181 0
118 199 -83 0
62 -105 -177 0
2 31 25 0
4 13 176 0
-96 -125 -13 0
13 141 -43 0
58 77 -159 0
65 -158 -140 0
73 -42 -75 0
128 -184 -117 0
77 -172 -83 0
7 196 134 0
172 86 125 0
103 42 -98 0
199 28 -112 0
125 -66 -72 0
101 55 52 0
172 -76 -159 0
184 82 -148 0
133 150 -156 0
87 -103 -53 0
2 -50 -19 0
15 63 152 0
-179 -61 -173 0
83 -91 -14 0
160 13 -86 0
-168 -136 -109 0
92 179 -137 0
175 -115 -156 0
42 35 -110 0
-171 -158 -172 0
-188 -187 -91 0
52 68 -47 0
146 -65 -28 0
153 20 102 0
157 -123 -75 0
11 138 -131 0
20 78 112 0
36 142 -142 0
49 -47 -55 0
27 58 -35 0
190 -158 -123 0
-10 -121 -124 0
123 -158 -103 0
128 -76 -115 0
189 -173 -58 0
196 173 180 0
87 88 -139 0
14 -146 -110 0
44 -16 -72 0
114 162 147 0
38 30 132 0
17 67 -82 0
91 18 -168 0
169 -132 -180 0
194 -168 -182 0
6 118 -18 0
182 58 61 0
46 157 -95 0
59 186 131 0
120 -4 -68 0
15 197 -173 0
-183 -21 -126 0
196 -192 -136 0
90 9 176 0
9 -115 -125 0
187 116 155 0
55 -107 -127 0
142 120 -2 0
47 131 178 0
106 -96 -161 0
193 -154 -72 0
128 27 175 0
191 83 -92 0
169 89 -125 0
97 -2 -37 0
117 183 34 0
-150 -113 -131 0
134 179 52 0
64 -193 -32 0
82 32 61 0
8 -167 -83 0
174 111 -24 0
111 124 -190 0
146 169 -197 0
93 131 -92 0
139 -41 -175 0
118 -49 -146 0
-25 -8 -24 0
142 -154 -59 0
-72 -11 -82 0
96 143 -21 0
130 51 -138 0
-198 -133 -195 0
89 -42 -170 0
86 116 -111 0
106 -50 -117 0
164 15 -15 0
-173 -88 -175 0
82 126 -118 0
115 -81 -199 0
163 -27 -48 0
117 65 -118 0
3 -148 -109 0
-184 -95 -126 0
-24 -126 -193 0
8 37 -98 0
70 40 -23 0
154 -79 -144 0
163 -24 -26 0
-1 -189 -87 0
127 99 -72 0
96 64 17 0
4 16 185 0
191 175 -101 0
111 100 -1 0
-194 -37 -92 0
-168 -154 -126 0
17 -136 -77 0
27 -159 -128 0
143 137 -160 0
137 146 -64 0
67 107 -129 0
172 38 -75 0
157 31 -18 0
179 152 -76 0
116 -1 -65 0
119 -62 -23 0
33 5 -144 0
164 -114 -154 0
187 134 -144 0
155 -56 -173 0
-69 -62 -1 0
171 -72 -98 0
114 118 -141 0
-146 -123 -154 0
133 13 -98 0
95 -170 -182 0
199 -196 -195 0
199 -182 -17 0
45 71 -58 0
83 34 -77 0
187 24 -47 0
167 85 -45 0
48 59 -163 0
91 -109 -3 0
65 41 -57 0
138 -27 -103 0
199 -39 -146 0
194 84 -110 0
139 -47 -10 0
193 -124 -85 0
181 12 -98 0
-64 -131 -17 0
73 70 90 0
71 -105 -155 0
133 89 -179 0
40 -197 -163 0
126 55 178 0
80 -102 -81 0
92 103 -144 0
8 49 169 0
106 189 -2 0
191 83 -188 0
41 27 -101 0
51 12 -193 0
27 145 -104 0
106 -108 -71 0
73 155 -164 0
74 187 -85 0
40 59 26 0
126 -197 -188 0
194 -57 -162 0
17 35 51 0
-193 -105 -171 0
-68 -198 -165 0
135 -5 -46 0
13 -95 -145 0
48 65 -130 0
73 17 78 0
167 29 111 0
-11 -151 -85 0
83 -66 -112 0
2 -133 -75 0
93 -62 -147 0
-184 -170 -147 0
76 169 -156 0
12 55 -138 0
-16 -67 -162 0
108 -57 -133 0
106 192 -10 0
-133 -88 -117 0
107 91 -43 0
56 -77 -43 0
75 27 32 0
142 -92 -86 0
130 180 90 0
36 -2 -123 0
184 127 -60 0
94 -33 -150 0
189 95 -54 0
50 -101 -128 0
173 170 48 0
81 176 -96 0
185 89 36 0
73 103 182 0
58 109 -15 0
145 101 -18 0
65 -188 -137 0
127 97 -102 0
173 -180 -173 0
23 64 168 0
69 -144 -135 0
38 54 61 0
166 89 143 0
139 -43 -96 0
77 -6 -10 0
53 -47 -97 0
113 -36 -11 0
16 154 -181 0
-46 -195 -175 0
185 -66 -98 0
157 196 -128 0
194 -145 -79 0
20 -176 -44 0
167 -23 -137 0
195 -173 -170 0
32 -166 -173 0
22 -48 -162 0
129 198 117 0
50 90 -84 0
32 108 -134 0
172 -107 -114 0
100 124 20 0
181 -59 -117 0
-109 -181 -69 0
3 -7 -25 0
105 176 -19 0
-163 -120 -122 0
-132 -187 -137 0
186 -47 -67 0
107 -82 -62 0
132 147 -140 0
194 -65 -161 0
35 -39 -25 0
129 -188 -99 0
116 -184 -103 0
44 -13 -46 0
-190 -97 -109 0
165 -9 -136 0
58 -46 -88 0
14 -190 -8 0
89 129 -26 0
55 85 -167 0
6 126 10 0
84 150 -96 0
29 43 -183 0
-101 -15 -174 0
151 197 -185 0
-163 -85 -186 0
129 126 -186 0
32 21 -84 0
65 -135 -149 0
52 168 -128 0
187 156 -175 0
77 136 -10 0
17 -50 -47 0
34 -180 -83 0
52 -85 -88 0
162 -152 -79 0
44 111 -177 0
41 -173 -89 0
-90 -48 -105 0
102 26 -26 0
48 95 -143 0
115 177 -45 0
196 175 -139 0
105 -105 -176 0
142 97 -93 0
6 145 -54 0
140 94 -75 0
43 44 -49 0
10 -141 -195 0
134 -85 -9 0
113 -72 -175 0
16 108 -179 0
75 -11 -81 0
-4 -11 -53 0
90 130 -66 0
114 -146 -47 0
129 -151 -164 0
129 -155 -170 0
165 113 -45 0
123 -59 -119 0
135 67 -56 0
127 140 -130 0
-168 -195 -36 0
106 -159 -155 0
122 29 186 0
118 55 -28 0
141 -164 -97 0
90 181 32 0
-35 -96 -148 0
-71 -185 -10 0
136 -30 -22 0
150 87 127 0
180 -92 -65 0
189 38 -26 0
127 152 -19 0
121 -130 -56 0
111 85 131 0
194 -162 -52 0
91 82 -26 0
155 -166 -118 0
170 89 -51 0
63 118 -76 0
154 10 -142 0
143 187 67 0
38 100 -68 0
191 172 -178 0
30 133 21 0
3 52 -62 0
175 -22 -12 0
144 135 -196 0
61 -191 -46 0
-155 -98 -171 0
141 7 73 0
163 162 -156 0
186 10 163 0
135 60 -31 0
124 -166 -105 0
111 -84 -4 0
159 27 -158 0
8 -179 -3 0
53 -36 -95 0
30 198 -93 0
155 165 -53 0
55 105 -158 0
56 165 -122 0
67 96 -19 0
25 14 -115 0
197 38 2 0
146 117 51 0
162 -7 -88 0
122 -33 -177 0
93 -145 -49 0
108 103 -135 0
76 17 -100 0
15 55 -114 0
140 -105 -78 0
89 170 -105 0
199 34 -104 0
6 -85 -159 0
66 119 -152 0
63 98 -135 0
27 -189 -123 0
3 -5 -3 0
114 39 -103 0
