c s2_kcnf_neg_MultiCMA
p cnf 200 1000
103 35 -52 0
67 194 -73 0
-35 -93 -131 0
40 -62 -74 0
-45 -106 -17 0
120 12 -3 0
170 -110 -48 0
-199 -156 -143 0
163 -184 -20 0
182 84 186 0
57 -55 -170 0
80 77 -32 0
21 -78 -85 0
107 -149 -112 0
147 -35 -108 0
5 66 -93 0
19 -111 -98 0
143 -199 -92 0
103 -112 -174 0
43 153 -66 0
189 -17 -66 0
187 177 -134 0
-157 -61 -197 0
82 162 -161 0
84 -6 -127 0
148 178 -196 0
58 -102 -115 0
200 55 85 0
2 -185 -194 0
131 -174 -199 0
172 -178 -32 0
63 -128 -45 0
120 -166 -46 0
142 110 160 0
5 92 -69 0
145 45 -56 0
149 -157 -37 0
96 132 -162 0
-67 -175 -2 0
81 115 -14 0
-91 -61 -3 0
135 111 -78 0
164 -126 -103 0
144 21 -37 0
-150 -14 -44 0
198 -52 -83 0
38 -68 -145 0
188 -65 -134 0
82 -159 -24 0
60 -136 -194 0
-157 -141 -65 0
28 120 -133 0
4 -75 -109 0
166 55 -14 0
154 -53 -97 0
-190 -60 -123 0
61 -131 -183 0
192 -98 -116 0
177 39 -84 0
188 -141 -117 0
158 154 124 0
180 -168 -170 0
33 -67 -20 0
16 98 -165 0
161 30 -50 0
200 141 174 0
97 -58 -147 0
176 -113 -81 0
5 -176 -54 0
58 139 -179 0
121 186 -23 0
66 -193 -199 0
180 144 -77 0
6 2 -47 0
-160 -88 -52 0
161 -164 -22 0
35 63 -73 0
41 -189 -19 0
38 81 -182 0
55 144 115 0
34 -44 -162 0
70 192 -85 0
-102 -85 -36 0
124 183 -164 0
58 145 -56 0
-58 -150 -97 0
7 -105 -7 0
-143 -110 -96 0
172 43 63 0
66 -82 -78 0
147 131 -179 0
176 -196 -2 0
118 107 -152 0
199 42 -112 0
182 54 -180 0
151 -189 -197 0
61 -137 -126 0
104 16 -171 0
52 -138 -18 0
6 49 -22 0
166 -137 -173 0
119 80 -111 0
8 -30 -156 0
-172 -56 -141 0
20 -131 -20 0
3 109 -39 0
67 65 -93 0
142 173 -151 0
147 124 -8 0
36 143 180 0
171 174 -74 0
91 37 -71 0
8 181 158 0
35 91 -69 0
120 23 -17 0
67 -136 -43 0
199 17 95 0
55 -96 -75 0
197 143 -81 0
164 -36 -104 0
148 73 -196 0
130 48 -18 0
30 74 -34 0
197 20 -16 0
52 -199 -195 0
82 160 -171 0
86 80 -114 0
118 26 193 0
151 69 139 0
101 66 177 0
172 56 -80 0
139 169 -93 0
21 -100 -133 0
136 36 45 0
18 -121 -122 0
142 49 -142 0
102 128 -164 0
-91 -74 -143 0
129 183 -36 0
-40 -154 -38 0
-93 -42 -45 0
82 -121 -44 0
99 138 -200 0
153 145 -117 0
15 -127 -158 0
128 33 -18 0
95 88 7 0
109 45 -103 0
135 92 -124 0
-60 -58 -164 0
184 2 150 0
150 137 -90 0
91 146 -149 0
137 11 143 0
72 -58 -21 0
193 140 -49 0
126 99 -121 0
46 -116 -64 0
71 -72 -20 0
114 99 -169 0
155 -27 -37 0
62 47 -74 0
108 -14 -163 0
151 115 70 0
99 -75 -182 0
162 181 -164 0
113 120 12 0
62 22 -200 0
120 169 -48 0
84 159 -117 0
45 -129 -68 0
9 91 -94 0
144 -17 -35 0
3 179 -141 0
96 -14 -142 0
-43 -189 -102 0
114 -179 -42 0
94 -174 -125 0
128 -169 -168 0
61 92 124 0
168 -165 -137 0
191 28 -69 0
7 -157 -191 0
1 -48 -7 0
101 83 -59 0
197 79 14 0
86 -57 -188 0
2 147 -81 0
-119 -87 -136 0
24 -149 -40 0
151 -109 -85 0
43 85 -39 0
157 107 -144 0
74 120 -56 0
97 90 -48 0
-149 -42 -96 0
25 173 -64 0
102 139 -1 0
-60 -194 -2 0
62 -35 -13 0
-129 -24 -155 0
195 174 -66 0
-115 -146 -29 0
-143 -49 -103 0
-129 -196 -101 0
-181 -86 -186 0
54 183 6 0
196 -114 -175 0
158 -27 -153 0
38 -78 -108 0
177 -130 -194 0
43 -52 -189 0
120 -81 -152 0
34 24 -60 0
80 -45 -32 0
55 99 -179 0
148 35 -75 0
195 -113 -42 0
126 16 -27 0
158 -148 -57 0
169 -10 -174 0
51 -175 -76 0
110 -166 -63 0
158 2 -59 0
131 -16 -144 0
143 -100 -134 0
72 -34 -123 0
162 -170 -150 0
-159 -62 -1 0
64 24 -17 0
46 33 4 0
60 80 137 0
61 195 -24 0
190 188 -12 0
6 174 -1 0
6 43 -110 0
178 81 156 0
139 -19 -12 0
181 -135 -45 0
33 20 -27 0
186 26 -88 0
198 129 -40 0
114 -185 -117 0
29 -8 -36 0
-90 -155 -7 0
83 173 -83 0
198 183 68 0
83 71 114 0
116 -133 -26 0
40 95 -162 0
48 171 -56 0
185 106 -73 0
200 47 -149 0
105 154 -66 0
156 147 -136 0
124 -194 -100 0
85 -168 -31 0
31 -199 -42 0
-151 -77 -10 0
-105 -195 -28 0
80 122 -184 0
72 -82 -54 0
179 -76 -107 0
163 70 -21 0
145 42 -90 0
73 135 -94 0
109 188 -29 0
145 193 -96 0
168 -165 -177 0
9 -102 -33 0
25 -21 -162 0
108 191 -61 0
37 -25 -75 0
101 168 -56 0
10 -89 -69 0
21 -81 -99 0
149 8 78 0
6 73 38 0
43 31 -193 0
39 91 -3 0
24 116 -18 0
29 -86 -80 0
1 100 -92 0
167 -139 -121 0
30 -153 -68 0
64 -190 -175 0
181 85 -3 0
-124 -167 -94 0
-63 -86 -9 0
44 -19 -26 0
51 52 -188 0
90 -4 -56 0
96 80 -9 0
155 -18 -32 0
47 169 -68 0
196 56 -177 0
108 -148 -191 0
167 187 -44 0
166 -113 -172 0
59 -117 -185 0
148 -21 -83 0
175 90 -51 0
132 109 14 0
-47 -131 -122 0
19 140 107 0
97 19 -15 0
117 62 186 0
13 98 188 0
50 95 -19 0
167 -6 -76 0
163 -166 -83 0
94 -16 -96 0
174 31 -64 0
-93 -66 -87 0
179 -125 -4 0
4 -126 -76 0
86 37 -34 0
-36 -197 -12 0
109 70 -40 0
99 33 107 0
192 -161 -25 0
-168 -46 -89 0
43 192 -64 0
40 -22 -64 0
138 5 -182 0
7 53 72 0
93 -66 -11 0
127 175 -24 0
75 -174 -79 0
2 120 -165 0
193 -33 -174 0
9 -122 -18 0
183 144 -136 0
-182 -128 -118 0
197 49 144 0
184 -167 -188 0
115 6 -112 0
89 78 -152 0
9 -166 -74 0
-142 -79 -188 0
16 14 -198 0
53 114 -166 0
-90 -54 -178 0
139 10 -157 0
111 191 -178 0
50 -146 -157 0
47 92 12 0
147 8 126 0
162 96 -33 0
3 23 -128 0
193 -190 -177 0
53 -169 -85 0
155 123 -188 0
85 -35 -151 0
47 200 -174 0
194 -33 -157 0
32 -159 -43 0
53 94 156 0
120 104 -117 0
126 -7 -68 0
135 144 114 0
192 70 -89 0
69 173 -16 0
27 164 -4 0
80 -56 -126 0
182 -23 -117 0
192 -184 -78 0
190 50 -33 0
38 45 157 0
173 195 193 0
145 -70 -186 0
98 193 -177 0
127 182 -2 0
45 -57 -60 0
168 184 -116 0
10 91 -105 0
152 8 -121 0
-21 -173 -151 0
-76 -176 -21 0
180 165 -199 0
-100 -6 -18 0
145 140 -178 0
145 -145 -58 0
130 181 120 0
98 -127 -40 0
75 61 77 0
62 -133 -149 0
-128 -15 -199 0
-143 -46 -53 0
120 110 -37 0
-100 -179 -186 0
42 83 -173 0
197 45 -48 0
-41 -145 -104 0
-12 -77 -123 0
11 -97 -19 0
75 -138 -177 0
-105 -191 -24 0
76 -113 -112 0
66 44 -174 0
147 156 -102 0
83 -94 -33 0
63 65 199 0
159 -199 -140 0
197 -78 -84 0
-151 -133 -122 0
165 -168 -59 0
117 -166 -63 0
184 -2 -107 0
101 159 -26 0
196 -76 -121 0
81 -175 -148 0
-43 -199 -78 0
175 192 -21 0
13 -89 -152 0
150 -197 -89 0
123 -38 -66 0
36 -22 -172 0
159 -122 -52 0
30 59 34 0
175 106 -27 0
-92 -147 -32 0
51 114 -121 0
-16 -118 -165 0
56 59 -143 0
181 81 171 0
140 -149 -2 0
56 -105 -79 0
58 -16 -41 0
13 -86 -198 0
114 194 -173 0
3 92 13 0
9 198 50 0
-105 -123 -6 0
114 149 -26 0
34 188 193 0
124 -82 -140 0
174 -141 -171 0
50 169 -179 0
106 54 143 0
113 -121 -200 0
6 73 -79 0
60 -17 -127 0
70 -146 -46 0
101 24 56 0
193 -70 -138 0
101 -66 -177 0
20 131 -4 0
-110 -101 -192 0
9 -28 -74 0
29 156 -155 0
142 -94 -45 0
127 182 -157 0
-60 -156 -35 0
103 60 -12 0
137 -177 -71 0
146 131 74 0
9 162 191 0
-105 -67 -195 0
15 37 -81 0
178 -168 -30 0
102 75 127 0
156 -129 -69 0
120 101 124 0
8 -122 -1 0
43 11 -165 0
-123 -113 -47 0
122 -188 -126 0
-67 -98 -83 0
28 -58 -13 0
53 -112 -128 0
154 12 -98 0
43 162 160 0
63 -48 -191 0
148 105 -173 0
170 -145 -112 0
58 -52 -133 0
163 195 -194 0
22 45 160 0
7 -168 -57 0
136 90 -189 0
143 31 -115 0
78 -23 -166 0
53 -69 -107 0
128 119 -128 0
5 -153 -134 0
184 162 75 0
46 -56 -58 0
151 88 63 0
37 63 111 0
-173 -149 -127 0
162 -129 -107 0
38 -102 -117 0
168 167 7 0
197 -77 -123 0
93 -119 -6 0
131 84 -29 0
170 63 -97 0
10 -113 -128 0
4 31 -165 0
-154 -11 -193 0
15 141 184 0
-122 -123 -55 0
1 69 160 0
146 106 -110 0
111 23 89 0
109 142 -113 0
60 -173 -184 0
54 -19 -93 0
157 163 -19 0
60 -130 -13 0
190 -29 -144 0
160 119 -95 0
-186 -164 -142 0
115 34 -100 0
63 21 -69 0
-113 -170 -173 0
142 -122 -26 0
110 -161 -160 0
109 108 -68 0
30 -28 -37 0
40 142 -179 0
177 149 51 0
78 179 -191 0
77 44 -96 0
-50 -109 -42 0
-191 -162 -165 0
46 -106 -69 0
86 92 52 0
61 -28 -169 0
43 83 158 0
-175 -161 -134 0
-168 -133 -120 0
175 76 -142 0
94 -158 -94 0
170 55 161 0
21 139 -41 0
193 156 -29 0
102 125 72 0
114 -59 -60 0
163 -3 -110 0
68 42 -26 0
15 -56 -51 0
92 58 -115 0
110 111 -96 0
78 178 -117 0
45 124 122 0
-38 -157 -184 0
29 67 -186 0
57 50 -77 0
18 -50 -104 0
-14 -100 -141 0
134 156 -194 0
20 162 -56 0
-161 -186 -43 0
116 167 -41 0
16 130 -64 0
20 80 -9 0
-118 -57 -56 0
-28 -150 -106 0
115 -89 -76 0
-188 -125 -9 0
-33 -36 -47 0
95 98 149 0
171 -18 -114 0
56 -140 -111 0
186 148 -87 0
111 -177 -114 0
50 -50 -113 0
186 135 -182 0
79 167 -85 0
95 -91 -53 0
-88 -200 -198 0
20 48 -174 0
19 -47 -125 0
168 45 -3 0
28 180 -195 0
42 -150 -146 0
25 137 -91 0
1 -92 -176 0
14 -53 -5 0
131 20 -55 0
138 -69 -112 0
49 -64 -161 0
111 -69 -48 0
5 70 -120 0
78 -41 -60 0
121 53 -76 0
156 47 28 0
135 143 -21 0
-47 -121 -84 0
189 -136 -37 0
-65 -113 -63 0
127 52 102 0
130 13 -15 0
181 32 -128 0
39 155 -187 0
159 -109 -194 0
93 -180 -57 0
103 25 -61 0
-153 -138 -107 0
11 148 -78 0
185 137 -199 0
127 150 194 0
-116 -143 -24 0
-84 -69 -80 0
148 131 -198 0
10 -107 -130 0
4 187 -5 0
-74 -140 -33 0
72 126 -126 0
105 198 -17 0
27 -66 -134 0
82 -68 -3 0
150 168 -10 0
-106 -143 -107 0
174 97 154 0
165 -62 -59 0
181 104 172 0
19 64 -74 0
-178 -134 -70 0
18 -144 -34 0
-32 -28 -144 0
163 92 -144 0
38 37 52 0
3 -26 -3 0
140 153 -22 0
151 -62 -96 0
120 -135 -97 0
73 -44 -147 0
66 -85 -194 0
133 84 -41 0
120 -123 -164 0
57 -35 -113 0
12 -64 -45 0
125 183 50 0
54 140 -83 0
150 48 140 0
-70 -27 -34 0
110 85 132 0
119 -190 -174 0
37 111 -5 0
46 113 -88 0
155 171 -71 0
47 -75 -19 0
-33 -168 -159 0
190 54 -134 0
171 -183 -197 0
-189 -198 -68 0
126 62 -168 0
-116 -68 -164 0
62 161 -26 0
191 -65 -155 0
196 -170 -83 0
192 -10 -190 0
62 -10 -6 0
152 -69 -77 0
88 47 -60 0
98 170 -66 0
35 163 -102 0
39 64 -122 0
127 146 -166 0
88 -143 -77 0
189 -182 -169 0
135 -49 -183 0
179 91 -179 0
103 32 -82 0
114 83 -73 0
100 72 123 0
42 -72 -84 0
84 -14 -183 0
-40 -102 -94 0
187 -183 -155 0
74 -175 -88 0
-137 -141 -183 0
-54 -195 -147 0
173 127 -155 0
29 3 197 0
-180 -56 -41 0
142 92 -21 0
50 107 -147 0
2 1 -157 0
2 125 -55 0
162 199 -71 0
-43 -23 -55 0
89 -169 -113 0
-187 -96 -79 0
78 -158 -160 0
137 3 -29 0
184 -77 -190 0
166 135 32 0
163 -14 -130 0
90 -66 -71 0
162 -190 -10 0
58 99 -118 0
149 159 -47 0
7 59 19 0
98 -112 -50 0
70 -88 -136 0
11 5 -169 0
35 23 -178 0
152 -162 -33 0
24 21 32 0
138 124 -72 0
147 80 -128 0
24 94 1 0
75 -93 -104 0
74 -154 -136 0
182 -113 -40 0
20 -39 -172 0
177 152 64 0
3 156 9 0
170 141 -77 0
192 7 161 0
69 -182 -191 0
-176 -18 -162 0
105 98 -119 0
-123 -128 -50 0
96 -191 -32 0
86 -142 -152 0
160 115 99 0
68 -95 -171 0
96 56 -27 0
60 124 -116 0
2 -82 -116 0
88 -37 -26 0
1 -174 -56 0
1 100 -195 0
196 158 -69 0
102 -159 -113 0
-105 -28 -77 0
195 -39 -96 0
39 -157 -164 0
60 89 88 0
44 120 -117 0
4 -142 -83 0
-190 -104 -121 0
110 160 -71 0
57 10 -143 0
-117 -88 -86 0
63 60 -6 0
-77 -144 -199 0
57 -93 -138 0
62 195 84 0
12 101 -69 0
105 -91 -112 0
97 -148 -170 0
126 63 -129 0
167 52 -151 0
133 -157 -27 0
58 100 -198 0
22 166 -8 0
100 -133 -45 0
15 90 -68 0
12 -36 -100 0
59 -123 -115 0
108 174 -106 0
30 196 -87 0
-37 -104 -120 0
196 -13 -98 0
138 -113 -3 0
45 -134 -107 0
-45 -23 -149 0
192 -180 -132 0
147 91 -169 0
77 58 -72 0
142 124 -184 0
15 104 -194 0
43 -34 -115 0
116 -57 -51 0
10 171 -135 0
95 1 142 0
154 -79 -134 0
43 119 87 0
195 197 -81 0
126 87 -29 0
138 -20 -13 0
127 154 -57 0
157 -199 -56 0
132 -60 -192 0
184 -112 -103 0
19 -121 -48 0
-174 -79 -52 0
13 -61 -41 0
1 55 -185 0
13 -182 -67 0
64 5 -84 0
128 -159 -31 0
167 110 -97 0
119 -13 -42 0
122 25 -50 0
121 30 -30 0
191 43 -145 0
87 -112 -114 0
178 155 -102 0
-165 -121 -17 0
182 79 -91 0
52 185 -19 0
93 -106 -15 0
113 50 -65 0
67 -4 -57 0
60 146 62 0
7 130 -69 0
-46 -161 -42 0
78 -57 -155 0
109 186 -71 0
63 -186 -148 0
65 -56 -129 0
33 -152 -87 0
20 147 -106 0
184 99 -142 0
172 -16 -26 0
31 130 -111 0
-177 -117 -116 0
115 134 -10 0
28 -70 -10 0
-104 -182 -145 0
124 -66 -199 0
82 -182 -187 0
46 138 -163 0
-64 -5 -188 0
28 -121 -109 0
-197 -130 -81 0
129 -82 -6 0
150 89 25 0
175 70 174 0
173 140 -73 0
150 163 -150 0
117 59 -144 0
31 168 -41 0
19 140 41 0
29 127 164 0
116 24 -160 0
199 -199 -38 0
140 -176 -113 0
73 -31 -113 0
25 112 -9 0
79 152 -185 0
-120 -110 -176 0
-4 -63 -102 0
154 103 55 0
9 -89 -195 0
-119 -138 -97 0
35 30 -35 0
-193 -146 -163 0
32 135 164 0
165 190 -139 0
9 107 85 0
101 159 -93 0
147 64 132 0
-166 -27 -48 0
158 76 -176 0
141 -147 -44 0
-77 -7 -52 0
182 120 -36 0
83 136 -156 0
152 -155 -123 0
172 -131 -135 0
120 -36 -20 0
20 175 -161 0
129 -13 -35 0
82 79 92 0
25 94 -64 0
3 -173 -3 0
71 158 -5 0
158 82 145 0
110 94 -87 0
-112 -59 -17 0
45 80 52 0
194 93 -99 0
15 -155 -14 0
167 113 -90 0
179 172 -10 0
100 -4 -95 0
120 -49 -101 0
180 123 185 0
26 188 -108 0
105 -155 -197 0
7 82 140 0
133 -96 -133 0
31 -18 -105 0
38 -108 -190 0
163 -157 -136 0
87 -157 -62 0
111 73 139 0
182 78 -194 0
200 -162 -196 0
122 123 -9 0
64 80 -160 0
192 139 16 0
197 -79 -146 0
171 173 -173 0
76 -188 -65 0
37 108 -122 0
127 42 -1 0
74 -112 -145 0
99 7 131 0
57 4 -17 0
190 39 -181 0
35 193 -155 0
24 43 -141 0
163 134 40 0
129 176 -79 0
104 73 -191 0
174 -1 -48 0
77 164 -52 0
23 -16 -105 0
-34 -183 -118 0
90 163 -183 0
9 6 -81 0
152 -49 -46 0
88 44 -21 0
104 24 -177 0
116 55 -181 0
76 197 -132 0
160 -194 -63 0
106 95 -65 0
142 100 -27 0
162 -189 -74 0
67 171 37 0
55 9 -155 0
169 -166 -11 0
100 -177 -116 0
153 47 -83 0
-176 -73 -146 0
80 33 -152 0
152 -55 -27 0
175 118 -196 0
-8 -14 -192 0
-147 -144 -17 0
186 118 -123 0
180 12 -84 0
98 -97 -9 0
58 178 -51 0
187 107 -22 0
-141 -18 -28 0
115 121 -74 0
15 83 -186 0
146 116 -136 0
85 90 -190 0
55 -175 -87 0
170 185 -44 0
-35 -68 -70 0
61 -184 -138 0
-141 -9 -160 0
-103 -86 -40 0
163 92 -76 0
188 -77 -195 0
5 -147 -145 0
128 60 -146 0
190 -125 -103 0
-100 -138 -98 0
-61 -83 -94 0
179 21 -7 0
70 -173 -116 0
2 -173 -82 0
101 75 106 0
70 -92 -19 0
-190 -165 -102 0
119 73 -133 0
114 45 -114 0
-30 -51 -47 0
153 23 -5 0
159 28 -200 0
6 -166 -176 0
51 139 -124 0
41 30 -26 0
164 -185 -135 0
84 150 -200 0
125 -134 -118 0
61 -26 -89 0
-94 -96 -43 0
121 139 -9 0
38 63 -102 0
184 156 -133 0
9 -108 -11 0
7 -129 -60 0
5 -3 -49 0
112 159 -159 0
90 128 -113 0
158 109 -26 0
52 68 -166 0
49 -153 -117 0
-85 -6 -189 0
-75 -156 -41 0
145 72 -14 0
94 119 -115 0
35 -118 -172 0
96 -60 -18 0
144 -85 -8 0
170 -80 -12 0
161 -181 -184 0
47 45 32 0
89 -79 -84 0
64 92 -165 0
161 183 -56 0
118 167 -34 0
114 167 66 0
70 172 -42 0
122 110 -43 0
