c s2_kcnf_log_MultiScaleCMA
p cnf 200 1000
145 -96 -151 0
99 164 -97 0
22 117 163 0
193 88 132 0
143 93 -16 0
36 -28 -167 0
18 152 -162 0
154 -73 -176 0
56 93 62 0
62 -174 -198 0
152 -189 -188 0
28 155 108 0
100 -75 -82 0
71 -41 -1 0
90 8 -176 0
148 -36 -38 0
138 -163 -18 0
71 -95 -33 0
72 25 -155 0
121 143 -166 0
17 35 191 0
73 -129 -185 0
30 -114 -41 0
-32 -5 -152 0
101 65 12 0
40 61 -116 0
-102 -87 -124 0
-62 -74 -99 0
38 -43 -199 0
1 70 -84 0
121 76 -26 0
10 -150 -141 0
15 34 -85 0
61 -97 -56 0
159 -86 -112 0
84 -108 -10 0
1 -176 -115 0
14 -64 -200 0
106 -43 -70 0
171 -21 -18 0
-49 -3 -136 0
11 74 119 0
72 -93 -16 0
-86 -192 -131 0
182 1 -176 0
115 121 -114 0
-54 -47 -181 0
17 -134 -13 0
79 4 -39 0
-73 -100 -57 0
66 46 -175 0
17 -73 -90 0
-104 -71 -171 0
169 108 -94 0
11 172 -97 0
93 -178 -49 0
82 90 -134 0
-70 -101 -96 0
190 -176 -67 0
195 122 12 0
-27 -121 -73 0
163 -19 -53 0
47 35 -192 0
35 -29 -193 0
114 101 -61 0
154 84 159 0
9 -34 -21 0
110 45 -143 0
40 73 -73 0
70 82 -198 0
-44 -135 -169 0
13 128 -182 0
19 -146 -64 0
173 168 -110 0
116 65 -199 0
55 16 64 0
141 -7 -195 0
87 27 194 0
15 -41 -6 0
139 -51 -148 0
53 42 -199 0
189 -20 -172 0
-4 -43 -30 0
103 118 -176 0
90 173 136 0
84 -178 -66 0
61 18 -194 0
111 78 -102 0
199 74 5 0
-33 -176 -46 0
188 63 -137 0
40 104 -92 0
195 70 -117 0
135 -101 -103 0
24 -127 -42 0
159 -3 -169 0
102 18 193 0
42 -158 -171 0
61 -68 -59 0
156 168 -68 0
170 189 -180 0
157 162 -22 0
18 165 -156 0
-36 -136 -117 0
14 -13 -88 0
196 63 -135 0
133 149 153 0
191 128 -18 0
157 -15 -62 0
57 -36 -156 0
-69 -192 -52 0
115 8 -18 0
-73 -155 -187 0
185 -140 -181 0
107 -100 -37 0
151 -62 -85 0
34 64 -102 0
132 146 -129 0
169 -30 -10 0
168 189 -80 0
178 -47 -100 0
197 73 -147 0
135 -169 -92 0
13 -139 -174 0
135 186 48 0
157 -90 -140 0
65 -15 -43 0
87 -128 -123 0
186 2 170 0
96 -144 -115 0
184 38 -90 0
34 53 -69 0
-102 -109 -92 0
71 80 -117 0
147 3 -59 0
141 -46 -26 0
54 -9 -125 0
-177 -92 -26 0
-47 -10 -75 0
68 191 -80 0
139 79 -109 0
173 198 152 0
108 73 -29 0
56 -23 -142 0
145 53 -13 0
101 105 177 0
131 183 -154 0
14 15 -77 0
190 198 184 0
12 104 -46 0
-177 -122 -170 0
178 -102 -4 0
-106 -153 -154 0
14 5 -70 0
14 -87 -25 0
120 4 -175 0
137 95 -11 0
141 118 94 0
129 62 -184 0
110 -79 -134 0
167 -79 -176 0
199 190 -136 0
4 -41 -108 0
58 51 -42 0
33 196 -133 0
140 -181 -183 0
147 158 -86 0
-50 -182 -171 0
22 111 -83 0
29 19 -171 0
196 12 -82 0
121 168 -147 0
-142 -94 -24 0
22 -118 -183 0
131 152 -172 0
12 -99 -67 0
20 193 -10 0
185 32 -162 0
87 36 170 0
176 -99 -117 0
57 -57 -136 0
8 -103 -69 0
47 -192 -16 0
99 -73 -8 0
175 -192 -73 0
62 74 -165 0
10 112 102 0
58 56 -117 0
130 37 -160 0
58 3 -171 0
17 -164 -130 0
184 167 -18 0
100 40 -10 0
-13 -142 -44 0
71 -85 -36 0
56 -153 -161 0
-192 -107 -45 0
134 14 -172 0
122 48 -81 0
-68 -134 -10 0
146 74 -18 0
188 151 72 0
5 128 -67 0
72 -33 -147 0
186 139 130 0
167 -79 -100 0
95 -123 -95 0
128 -189 -95 0
112 125 -12 0
75 163 -199 0
155 -176 -94 0
146 -102 -71 0
165 114 -71 0
1 195 -2 0
-49 -120 -74 0
85 5 163 0
23 -182 -11 0
191 -26 -3 0
103 -183 -112 0
12 -16 -195 0
186 169 110 0
12 22 -144 0
160 -189 -17 0
-199 -125 -62 0
-177 -51 -187 0
61 -96 -158 0
7 31 -152 0
46 -167 -38 0
99 3 -82 0
26 66 -132 0
30 51 -23 0
55 64 16 0
143 146 -65 0
181 178 -35 0
152 145 -65 0
50 -114 -137 0
185 166 96 0
-23 -148 -31 0
-10 -39 -62 0
108 177 -94 0
77 138 -139 0
60 -139 -34 0
-136 -125 -158 0
-90 -130 -131 0
6 -169 -120 0
-60 -131 -45 0
-186 -24 -4 0
2 188 -125 0
-97 -40 -183 0
12 -166 -32 0
39 42 -161 0
-30 -7 -14 0
11 -164 -188 0
156 112 -14 0
39 81 -120 0
72 -178 -84 0
54 180 -161 0
117 135 -21 0
48 151 41 0
199 166 -139 0
55 131 -27 0
161 124 -119 0
46 141 -109 0
175 130 118 0
21 5 -174 0
97 -112 -95 0
106 188 -39 0
16 82 -182 0
-40 -102 -11 0
28 169 147 0
147 -131 -95 0
183 -87 -148 0
6 -98 -134 0
198 -155 -36 0
20 29 -126 0
27 198 38 0
177 73 132 0
190 144 -155 0
86 60 -196 0
193 91 17 0
55 -51 -30 0
165 66 -107 0
91 -97 -46 0
-94 -156 -65 0
-192 -134 -40 0
133 121 12 0
178 -93 -50 0
6 47 -22 0
29 83 -34 0
-76 -32 -128 0
78 90 -57 0
115 5 -163 0
63 138 -70 0
16 73 60 0
137 125 -117 0
47 168 -124 0
119 -142 -16 0
29 -128 -139 0
199 -181 -75 0
55 142 156 0
95 -16 -140 0
157 68 -86 0
13 103 -172 0
75 103 188 0
199 17 128 0
43 98 -56 0
-66 -190 -82 0
8 -91 -92 0
47 16 38 0
-44 -64 -183 0
145 -27 -151 0
145 97 -177 0
158 66 165 0
34 163 -79 0
89 -96 -137 0
31 -30 -95 0
22 91 -170 0
160 124 -106 0
20 116 -52 0
145 -67 -96 0
167 -26 -151 0
191 -12 -19 0
172 17 -36 0
166 58 78 0
114 5 -140 0
50 123 112 0
38 -151 -148 0
131 117 -23 0
148 -172 -80 0
1 67 -57 0
162 165 82 0
50 -96 -105 0
92 127 -17 0
83 -50 -97 0
-49 -138 -175 0
166 -9 -194 0
120 -155 -89 0
150 61 -97 0
198 -41 -190 0
95 122 -120 0
79 -155 -172 0
144 178 -182 0
96 159 -125 0
2 179 140 0
28 -92 -120 0
43 63 51 0
164 178 -115 0
-70 -67 -56 0
113 8 -24 0
164 54 110 0
72 191 6 0
-51 -77 -32 0
21 -53 -14 0
183 -26 -27 0
123 -4 -176 0
33 180 -49 0
173 96 -89 0
49 5 -53 0
6 -38 -196 0
-151 -186 -169 0
-92 -45 -53 0
94 -130 -189 0
85 -3 -97 0
-174 -29 -182 0
125 -80 -43 0
123 -191 -194 0
-38 -27 -132 0
86 -89 -90 0
53 -91 -118 0
196 -36 -77 0
123 84 -123 0
27 -39 -1 0
-92 -30 -52 0
102 170 -61 0
176 -153 -72 0
166 -34 -73 0
80 182 -122 0
55 -55 -188 0
-75 -120 -81 0
71 -24 -30 0
34 21 81 0
122 -4 -113 0
69 -31 -109 0
47 13 -199 0
-97 -87 -138 0
80 190 -124 0
132 169 34 0
187 51 -51 0
57 -156 -111 0
126 86 -128 0
29 20 -16 0
133 -17 -29 0
107 143 144 0
-43 -74 -141 0
163 161 158 0
-187 -148 -36 0
177 174 -65 0
159 -79 -27 0
78 -54 -126 0
27 108 -78 0
81 -70 -21 0
119 179 -134 0
172 76 -116 0
155 44 -115 0
20 188 -5 0
-156 -92 -104 0
143 94 -17 0
117 -44 -130 0
3 196 35 0
-105 -167 -30 0
29 158 200 0
188 -198 -169 0
101 -58 -153 0
112 87 -120 0
9 -155 -110 0
98 -194 -130 0
70 50 -152 0
154 198 -31 0
53 165 -39 0
84 70 83 0
11 -127 -79 0
95 113 -109 0
78 151 64 0
-67 -114 -179 0
37 -146 -132 0
175 145 -84 0
98 174 -14 0
10 185 -49 0
-171 -198 -150 0
193 122 -14 0
-90 -2 -108 0
160 12 -105 0
-94 -172 -192 0
5 72 -7 0
160 -52 -197 0
187 -50 -34 0
47 -57 -127 0
90 193 -109 0
50 147 -167 0
103 -59 -123 0
35 173 -158 0
154 186 -63 0
150 162 -40 0
88 170 151 0
55 154 40 0
133 82 -187 0
164 -46 -154 0
176 67 13 0
-180 -189 -143 0
83 58 -109 0
-162 -73 -111 0
183 52 -101 0
137 15 -3 0
105 -4 -129 0
15 -144 -6 0
173 -120 -160 0
183 -161 -104 0
50 97 -43 0
71 56 31 0
186 -194 -88 0
25 45 191 0
198 140 -129 0
67 4 138 0
58 -55 -155 0
46 -54 -149 0
185 111 -83 0
116 114 -180 0
-115 -96 -186 0
165 49 84 0
173 -142 -74 0
158 178 -187 0
153 -20 -37 0
34 6 -45 0
46 -64 -176 0
170 -56 -62 0
176 149 -153 0
126 133 -158 0
105 -45 -161 0
47 121 12 0
93 111 -14 0
17 83 -185 0
107 140 -130 0
54 -53 -166 0
71 -190 -57 0
76 191 -35 0
191 42 -151 0
37 163 -56 0
94 19 -193 0
-88 -54 -187 0
189 -55 -59 0
52 -55 -106 0
58 -76 -191 0
6 62 -142 0
54 110 -143 0
3 -113 -144 0
38 68 -2 0
72 68 -67 0
4 172 -65 0
199 -2 -102 0
96 55 -20 0
121 -183 -141 0
196 106 137 0
-126 -150 -125 0
22 54 -85 0
19 -35 -119 0
88 -125 -106 0
109 -95 -12 0
108 144 67 0
157 26 197 0
141 114 -44 0
65 193 -163 0
41 52 111 0
165 71 151 0
66 -162 -2 0
33 18 -185 0
100 102 65 0
159 103 -46 0
-184 -59 -97 0
118 164 -102 0
197 -18 -92 0
69 -71 -65 0
80 -195 -105 0
-172 -16 -57 0
84 108 -192 0
-129 -139 -13 0
71 148 -117 0
170 -101 -123 0
200 113 13 0
184 3 -56 0
135 33 -72 0
56 100 -127 0
169 121 -185 0
26 -99 -148 0
86 85 -156 0
80 -68 -44 0
187 -59 -70 0
1 -157 -169 0
131 195 -91 0
-196 -106 -20 0
81 -22 -140 0
-189 -30 -95 0
173 185 -82 0
166 169 120 0
8 -70 -46 0
73 177 -52 0
160 169 -60 0
157 108 -96 0
49 -98 -32 0
-159 -164 -101 0
168 48 -42 0
-9 -74 -66 0
164 87 187 0
172 27 87 0
-65 -85 -56 0
187 -59 -103 0
28 -185 -7 0
118 117 -56 0
198 -148 -165 0
8 58 -21 0
46 28 -107 0
152 128 -187 0
92 48 -63 0
77 174 29 0
64 63 129 0
119 20 -34 0
112 101 -138 0
56 -148 -45 0
29 184 -59 0
164 -81 -156 0
171 186 24 0
66 173 39 0
174 173 -33 0
44 166 -122 0
195 82 -191 0
93 151 -85 0
136 104 -132 0
178 65 -34 0
191 -29 -118 0
125 -154 -194 0
37 -95 -162 0
79 142 -56 0
75 -180 -54 0
-5 -111 -120 0
-30 -148 -136 0
158 4 -16 0
-104 -32 -64 0
-119 -106 -124 0
40 165 -43 0
149 -51 -174 0
71 66 88 0
68 8 -196 0
146 15 -200 0
87 45 -59 0
-170 -82 -78 0
-140 -108 -22 0
42 52 -131 0
142 -54 -171 0
2 -99 -14 0
18 43 175 0
179 147 -30 0
47 -149 -69 0
39 127 -90 0
105 30 -163 0
43 -129 -127 0
119 -67 -59 0
191 91 54 0
115 -28 -25 0
28 148 -141 0
174 -64 -132 0
20 -32 -194 0
162 -35 -168 0
83 176 -169 0
-112 -84 -128 0
4 135 -80 0
124 -199 -30 0
35 -48 -109 0
90 60 -64 0
132 111 -179 0
147 -113 -153 0
176 74 -36 0
-35 -2 -72 0
-15 -75 -35 0
173 -121 -11 0
13 7 -53 0
149 183 -101 0
32 11 -6 0
-7 -116 -41 0
130 136 -32 0
80 103 93 0
-88 -81 -189 0
144 -168 -191 0
132 -90 -115 0
157 -199 -57 0
103 -83 -80 0
13 -60 -171 0
126 43 77 0
52 33 -118 0
81 133 -171 0
179 -159 -179 0
94 -48 -41 0
89 16 -143 0
122 175 -2 0
180 -16 -66 0
-37 -70 -200 0
107 100 -61 0
136 49 -53 0
11 86 -149 0
177 -9 -190 0
60 -137 -118 0
30 -153 -158 0
50 36 -6 0
157 179 -69 0
104 -63 -154 0
173 -129 -10 0
194 25 -131 0
184 190 103 0
185 133 -85 0
27 -7 -96 0
31 140 113 0
5 187 -3 0
19 -44 -184 0
84 109 111 0
84 173 53 0
188 55 149 0
6 143 -30 0
19 -35 -61 0
40 47 -60 0
-152 -141 -76 0
39 -108 -109 0
92 189 -41 0
-156 -21 -121 0
113 -75 -126 0
12 -75 -64 0
118 73 7 0
132 -61 -182 0
110 160 -126 0
86 192 -44 0
-64 -194 -48 0
-125 -168 -164 0
-92 -16 -153 0
98 -33 -135 0
163 86 -174 0
149 95 -119 0
63 -138 -24 0
80 -110 -22 0
193 -15 -140 0
91 190 -173 0
133 191 -77 0
96 -56 -42 0
32 166 -13 0
56 143 178 0
-168 -58 -46 0
37 -89 -95 0
-33 -58 -69 0
131 -117 -155 0
113 155 -21 0
150 161 -172 0
131 18 -15 0
146 -62 -18 0
-115 -116 -97 0
154 122 62 0
48 53 59 0
180 196 24 0
6 -105 -106 0
46 -57 -24 0
-5 -124 -77 0
193 -142 -56 0
-34 -106 -64 0
119 -107 -104 0
177 -131 -125 0
113 -37 -2 0
183 -109 -92 0
31 -98 -182 0
86 193 -7 0
-33 -160 -176 0
37 -172 -7 0
53 41 -9 0
112 -123 -168 0
26 84 102 0
177 196 -30 0
-30 -179 -59 0
-38 -184 -96 0
131 -9 -190 0
43 -138 -172 0
134 -75 -37 0
-105 -164 -15 0
29 -156 -56 0
72 80 -24 0
143 29 -26 0
195 174 -199 0
-15 -153 -183 0
-31 -159 -17 0
163 169 70 0
197 136 141 0
188 20 -30 0
-171 -16 -154 0
177 -172 -49 0
55 165 -46 0
87 -157 -179 0
107 55 -138 0
3 -109 -61 0
-122 -85 -92 0
193 92 -138 0
90 182 -66 0
20 103 -46 0
188 123 -94 0
32 127 -149 0
66 -184 -65 0
105 68 -11 0
150 -133 -160 0
96 54 132 0
99 191 65 0
124 78 66 0
18 172 -97 0
-89 -52 -63 0
24 -164 -81 0
19 56 -194 0
69 178 -37 0
-187 -68 -79 0
93 15 94 0
130 111 -178 0
65 142 -86 0
-24 -93 -87 0
-162 -6 -110 0
28 -102 -156 0
172 70 173 0
73 108 -182 0
111 141 -136 0
169 -186 -181 0
160 123 -153 0
132 -106 -36 0
193 -87 -56 0
126 -80 -196 0
50 35 108 0
89 168 84 0
38 114 -34 0
-2 -186 -194 0
54 -121 -156 0
46 -163 -194 0
24 137 61 0
146 -115 -164 0
33 -93 -13 0
-48 -77 -13 0
197 52 29 0
71 61 -41 0
169 114 -128 0
114 29 137 0
154 -74 -36 0
111 143 -131 0
171 -144 -94 0
-60 -195 -69 0
130 -19 -74 0
-67 -11 -145 0
-110 -176 -19 0
65 -149 -55 0
143 18 -53 0
136 39 -98 0
136 98 16 0
144 -2 -11 0
144 -158 -68 0
125 -62 -85 0
108 -139 -98 0
1 -165 -2 0
193 41 -85 0
145 -159 -129 0
106 55 -82 0
141 25 -4 0
71 77 -22 0
15 177 -188 0
105 -92 -148 0
147 31 -177 0
67 -37 -155 0
6 12 104 0
-41 -78 -143 0
-60 -192 -78 0
183 40 -117 0
85 -90 -161 0
195 -117 -170 0
23 31 87 0
137 1 -32 0
188 12 -72 0
118 171 -118 0
41 165 87 0
40 77 -155 0
91 38 -69 0
58 72 -81 0
165 21 -187 0
-38 -35 -182 0
114 141 -42 0
119 -131 -60 0
199 111 5 0
158 -193 -26 0
63 112 196 0
58 -92 -171 0
-26 -21 -28 0
13 163 4 0
1 37 -101 0
17 152 99 0
174 -136 -26 0
40 -47 -32 0
196 101 -64 0
143 1 -61 0
92 -155 -49 0
140 36 -37 0
12 133 -14 0
151 -160 -141 0
41 79 -145 0
116 166 -26 0
69 84 -36 0
194 -140 -149 0
60 47 168 0
67 145 25 0
20 198 -80 0
150 -27 -199 0
100 -102 -19 0
2 -192 -57 0
110 -37 -73 0
177 118 -194 0
11 93 105 0
125 -154 -61 0
80 -78 -17 0
52 -173 -85 0
77 -33 -91 0
92 -75 -194 0
-26 -69 -19 0
143 97 -151 0
165 -196 -45 0
108 48 7 0
-16 -171 -89 0
115 124 -15 0
74 -161 -189 0
83 22 165 0
86 -175 -68 0
130 5 8 0
5 56 35 0
109 -83 -150 0
65 -164 -45 0
-109 -60 -63 0
88 -106 -44 0
31 169 -15 0
122 -36 -32 0
32 68 -73 0
103 -162 -164 0
180 96 -153 0
4 116 -96 0
17 -42 -196 0
18 45 -154 0
-78 -151 -199 0
-137 -31 -30 0
183 -129 -93 0
134 -108 -196 0
192 -148 -37 0
124 45 -52 0
44 -182 -127 0
58 -83 -99 0
71 -80 -146 0
168 126 -74 0
114 70 -193 0
109 135 -20 0
158 -48 -116 0
-139 -131 -156 0
65 -89 -30 0
68 88 -7 0
2 -26 -130 0
-49 -39 -151 0
192 -110 -162 0
132 58 -166 0
20 112 -117 0
107 79 28 0
15 49 -39 0
75 161 -147 0
92 96 71 0
57 -10 -144 0
173 -94 -148 0
178 45 -141 0
-149 -141 -17 0
31 35 -181 0
91 85 -52 0
38 140 -92 0
171 -7 -176 0
34 -129 -103 0
-40 -112 -63 0
119 98 -94 0
183 57 28 0
8 -110 -26 0
29 -145 -36 0
90 150 -198 0
120 82 -75 0
-158 -159 -136 0
87 180 129 0
175 16 -70 0
189 -140 -63 0
71 91 -169 0
186 -145 -123 0
48 74 -61 0
38 165 -118 0
64 -121 -68 0
61 25 -17 0
141 110 -95 0
181 -85 -83 0
151 194 -96 0
157 -107 -29 0
112 61 60 0
149 29 -139 0
98 -190 -55 0
188 -94 -28 0
188 -166 -101 0
99 194 10 0
167 182 -3 0
2 -148 -49 0
128 97 -103 0
93 94 -149 0
44 -152 -78 0
68 173 -6 0
-58 -174 -135 0
49 -62 -64 0
147 164 194 0
177 92 -172 0
116 9 -34 0
70 142 -98 0
116 -67 -134 0
1 -3 -34 0
104 112 -73 0
-103 -195 -156 0
-59 -16 -82 0
111 -184 -37 0
154 109 175 0
191 193 -27 0
46 67 -146 0
163 -123 -70 0
58 -79 -32 0
66 118 -20 0
29 62 -40 0
98 -160 -24 0
55 -92 -126 0
-27 -107 -168 0
23 85 152 0
139 104 -84 0
169 173 129 0
45 -25 -153 0
157 -46 -142 0
45 181 -21 0
-134 -137 -42 0
99 159 -121 0
46 38 88 0
154 3 -180 0
95 84 -22 0
-100 -110 -108 0
184 -61 -136 0
197 95 -3 0
68 97 -68 0
30 -126 -158 0
159 -35 -57 0
16 -162 -141 0
138 146 -180 0
21 13 76 0
21 103 -24 0
25 15 121 0
3 -128 -110 0
46 -75 -149 0
