c s2_kcnf_pow2_MultiScaleCMA
p cnf 200 1000
71 -192 -140 0
135 53 12 0
73 9 -33 0
134 -149 -41 0
39 -117 -124 0
32 -109 -85 0
189 29 95 0
107 97 -85 0
127 -54 -33 0
26 34 169 0
31 55 -62 0
137 -109 -98 0
52 73 -75 0
-104 -46 -108 0
46 5 70 0
70 7 -62 0
16 -2 -52 0
151 -113 -61 0
31 20 -50 0
90 -81 -173 0
185 -124 -185 0
39 106 -149 0
69 -173 -110 0
161 149 140 0
54 47 -66 0
57 33 -127 0
196 -5 -101 0
-149 -71 -150 0
-185 -40 -190 0
-56 -149 -75 0
22 166 -192 0
163 -69 -92 0
-69 -178 -75 0
-113 -160 -117 0
138 91 -59 0
-104 -36 -140 0
94 158 -47 0
172 184 -67 0
-50 -160 -13 0
98 26 -134 0
-66 -169 -185 0
181 96 107 0
95 45 -167 0
72 194 -107 0
152 -3 -66 0
130 128 7 0
96 -157 -62 0
97 71 -176 0
133 -33 -29 0
104 103 -31 0
132 -111 -27 0
187 -193 -115 0
58 164 -164 0
128 -140 -82 0
113 29 66 0
112 13 -30 0
130 192 -86 0
64 25 -120 0
171 -106 -107 0
117 56 -153 0
127 -4 -72 0
83 153 -157 0
158 126 32 0
123 148 -173 0
172 157 5 0
-67 -24 -2 0
64 -21 -183 0
182 35 186 0
148 -21 -99 0
155 -83 -133 0
95 99 -35 0
74 -144 -8 0
83 -21 -194 0
71 -99 -125 0
43 11 133 0
-60 -52 -163 0
34 160 -109 0
38 -146 -181 0
69 -112 -134 0
-93 -101 -11 0
-58 -23 -104 0
-170 -21 -169 0
128 -169 -8 0
-161 -131 -74 0
194 -159 -199 0
98 192 6 0
167 71 -152 0
193 179 172 0
164 167 -67 0
192 69 -121 0
77 122 -194 0
186 24 -135 0
8 183 133 0
160 141 -42 0
-173 -119 -195 0
136 -193 -108 0
1 -20 -147 0
120 -168 -18 0
32 -80 -194 0
49 124 -41 0
59 -84 -68 0
97 -99 -21 0
116 69 -42 0
32 168 -121 0
100 -166 -46 0
20 -171 -193 0
167 -21 -150 0
185 65 -159 0
119 -117 -186 0
62 81 -186 0
34 -98 -13 0
168 87 -113 0
23 79 -177 0
95 198 171 0
142 -164 -111 0
142 96 -120 0
6 122 -199 0
10 -80 -135 0
143 -143 -123 0
3 -193 -68 0
183 -56 -52 0
34 196 -84 0
134 6 79 0
-189 -167 -28 0
90 -22 -163 0
117 194 -189 0
150 -15 -177 0
53 -78 -142 0
75 -115 -119 0
136 155 -102 0
30 17 -155 0
72 23 14 0
80 28 -47 0
111 -187 -17 0
181 -167 -25 0
34 -4 -107 0
44 106 -181 0
90 35 -88 0
123 -77 -136 0
42 -42 -43 0
174 187 -12 0
123 -4 -147 0
98 -186 -195 0
158 -35 -69 0
170 -30 -157 0
156 -36 -197 0
82 73 -188 0
124 -188 -176 0
30 49 -97 0
-86 -70 -55 0
76 199 -83 0
18 -77 -51 0
2 179 -52 0
166 184 -164 0
-27 -115 -88 0
-124 -51 -59 0
67 62 39 0
-137 -86 -187 0
102 191 -183 0
12 -192 -55 0
18 -18 -5 0
97 149 -122 0
127 -187 -140 0
69 -117 -128 0
108 98 -78 0
131 142 -100 0
56 16 -30 0
35 -153 -67 0
61 195 130 0
3 -161 -15 0
69 -148 -30 0
135 115 -144 0
46 108 6 0
64 133 151 0
21 169 -114 0
-137 -95 -118 0
43 -139 -175 0
34 -48 -48 0
49 -52 -119 0
49 138 -173 0
194 34 -132 0
185 -62 -187 0
71 46 -8 0
43 106 97 0
63 61 -53 0
179 36 -1 0
15 -196 -129 0
95 87 -107 0
-108 -10 -165 0
145 -103 -189 0
190 -127 -120 0
108 47 -113 0
171 179 -83 0
54 140 -22 0
116 -194 -42 0
53 -170 -154 0
106 72 -81 0
57 106 -96 0
194 92 -149 0
3 116 -98 0
21 96 -171 0
158 -48 -131 0
71 139 7 0
-21 -160 -150 0
-49 -79 -55 0
87 -33 -49 0
106 96 -59 0
137 -193 -159 0
49 -166 -189 0
188 -99 -106 0
-21 -151 -19 0
177 145 -121 0
79 -116 -182 0
142 71 -97 0
64 -157 -30 0
32 -181 -19 0
81 146 -58 0
129 63 -27 0
85 60 -51 0
165 -91 -110 0
82 -52 -153 0
95 52 -181 0
188 -104 -80 0
65 182 77 0
-71 -36 -22 0
24 88 -39 0
34 178 156 0
113 103 189 0
-7 -135 -150 0
39 32 -61 0
29 -123 -26 0
50 165 -166 0
46 28 -35 0
59 194 113 0
177 141 122 0
-40 -118 -82 0
15 -147 -191 0
49 92 54 0
7 82 98 0
174 149 93 0
175 141 -52 0
113 152 -74 0
87 173 -80 0
97 46 -120 0
61 114 166 0
54 26 21 0
130 -59 -61 0
31 -1 -29 0
103 -97 -105 0
120 -123 -50 0
79 135 -50 0
189 115 136 0
123 182 -110 0
94 72 -158 0
186 71 -149 0
2 -56 -144 0
89 22 -53 0
-160 -93 -174 0
102 71 -114 0
167 -36 -53 0
10 190 -94 0
158 141 -171 0
58 -25 -178 0
105 -42 -32 0
80 166 -112 0
152 132 -33 0
37 -143 -37 0
89 43 -1 0
196 -144 -19 0
23 -31 -69 0
180 -125 -90 0
54 -175 -137 0
113 92 -121 0
163 -58 -95 0
189 -17 -99 0
80 -148 -99 0
84 -48 -3 0
161 99 175 0
116 68 -95 0
84 -90 -148 0
137 -96 -78 0
11 -50 -89 0
-192 -164 -60 0
100 23 -199 0
193 23 -125 0
18 163 -53 0
106 172 -97 0
164 34 -70 0
152 91 -56 0
61 -133 -131 0
138 173 -48 0
71 -5 -137 0
95 -164 -50 0
28 -196 -99 0
-40 -174 -180 0
158 -186 -100 0
94 125 -191 0
186 -160 -39 0
138 87 -14 0
100 195 -155 0
152 112 36 0
85 43 -103 0
129 -8 -148 0
12 49 -197 0
-136 -175 -196 0
89 164 12 0
153 -123 -156 0
34 177 143 0
179 55 -105 0
142 -181 -7 0
65 -128 -84 0
51 3 -34 0
159 20 -145 0
133 166 -81 0
5 -86 -147 0
9 -125 -191 0
85 40 -166 0
-70 -24 -103 0
140 -150 -186 0
116 -3 -117 0
104 -184 -138 0
122 -184 -36 0
-35 -149 -60 0
9 71 1 0
126 31 24 0
-35 -145 -174 0
152 -188 -95 0
-33 -38 -162 0
197 -152 -100 0
96 175 -68 0
130 -116 -146 0
187 -48 -155 0
61 157 -188 0
69 133 -9 0
157 -146 -140 0
5 -62 -74 0
15 186 -82 0
160 -154 -86 0
-88 -165 -89 0
73 95 -126 0
99 -169 -3 0
68 15 13 0
147 -49 -80 0
41 39 160 0
184 -163 -56 0
102 192 25 0
71 165 -87 0
195 -122 -127 0
37 45 -122 0
199 -14 -7 0
23 109 103 0
144 -161 -107 0
45 -199 -164 0
77 122 -109 0
64 -161 -59 0
171 182 -59 0
68 65 174 0
38 -11 -105 0
178 124 -115 0
-103 -96 -92 0
30 -194 -53 0
183 -159 -69 0
84 22 119 0
182 90 73 0
83 128 -181 0
34 105 -133 0
161 90 -182 0
97 -27 -111 0
80 104 -76 0
-25 -19 -148 0
19 -177 -155 0
45 157 28 0
52 -94 -143 0
-88 -31 -17 0
62 -49 -9 0
110 126 -31 0
104 -198 -131 0
105 -197 -84 0
147 -153 -66 0
47 78 -88 0
151 159 -86 0
-69 -138 -37 0
63 116 -180 0
185 200 114 0
17 -193 -118 0
115 108 -23 0
100 -185 -40 0
173 107 -73 0
185 98 -7 0
111 145 190 0
71 24 -80 0
180 -162 -35 0
-24 -55 -166 0
108 -22 -162 0
134 -34 -24 0
111 18 -185 0
28 41 38 0
199 -96 -32 0
88 114 -77 0
89 69 -179 0
42 151 -168 0
128 -17 -58 0
168 51 150 0
18 55 87 0
66 -42 -17 0
116 90 53 0
-145 -29 -46 0
168 -57 -4 0
14 13 -121 0
-12 -88 -14 0
-53 -159 -51 0
190 129 82 0
185 131 -6 0
74 179 -177 0
165 116 -120 0
178 -189 -19 0
90 182 143 0
126 98 -148 0
55 -174 -28 0
86 -48 -93 0
158 150 -86 0
192 119 -8 0
27 -45 -43 0
82 39 -65 0
164 192 130 0
125 -83 -135 0
-121 -46 -118 0
172 -63 -169 0
29 -70 -6 0
132 147 -160 0
95 35 -134 0
-44 -27 -147 0
15 -75 -83 0
-104 -51 -183 0
135 154 -46 0
171 143 105 0
197 122 163 0
153 65 -72 0
57 167 -110 0
84 83 -132 0
63 -159 -43 0
174 93 -11 0
134 120 -184 0
179 60 -136 0
121 122 137 0
154 126 -111 0
-50 -105 -61 0
47 -149 -33 0
127 -136 -92 0
111 6 36 0
114 -137 -1 0
-46 -198 -197 0
27 26 -103 0
4 93 11 0
142 -126 -118 0
157 -31 -39 0
172 -133 -141 0
-148 -151 -50 0
19 -142 -102 0
10 -52 -147 0
32 10 -64 0
-49 -25 -4 0
39 -83 -180 0
81 -139 -132 0
136 -93 -152 0
54 143 -12 0
182 159 -169 0
147 -22 -196 0
154 -186 -192 0
130 123 149 0
83 189 43 0
94 175 -155 0
73 160 174 0
73 101 -102 0
134 159 132 0
118 -32 -17 0
90 133 -63 0
163 -195 -121 0
54 100 -10 0
15 41 -170 0
127 151 168 0
183 151 -173 0
128 49 -121 0
-33 -128 -74 0
20 186 -119 0
61 195 -146 0
27 167 -191 0
179 158 -121 0
32 -127 -96 0
74 -84 -198 0
80 -137 -155 0
110 -75 -9 0
-41 -48 -182 0
-76 -168 -82 0
-109 -22 -149 0
198 146 -196 0
64 -101 -71 0
113 -18 -3 0
133 -124 -56 0
-74 -157 -103 0
-187 -199 -144 0
71 35 188 0
32 148 -128 0
138 67 -193 0
144 105 -139 0
36 42 -44 0
161 20 -167 0
106 -189 -115 0
184 18 -188 0
143 174 -26 0
-100 -156 -101 0
93 26 -144 0
148 87 -104 0
71 -125 -19 0
87 -188 -83 0
148 162 -131 0
147 -69 -3 0
-37 -178 -65 0
172 179 -34 0
5 141 185 0
7 -31 -106 0
70 29 -110 0
138 29 -149 0
62 -96 -4 0
79 54 -113 0
51 77 91 0
139 166 -67 0
26 -33 -115 0
195 -39 -123 0
3 130 -50 0
90 -67 -6 0
100 172 131 0
165 60 -159 0
89 -61 -73 0
58 -79 -131 0
7 129 -66 0
65 -116 -59 0
79 151 -167 0
47 -135 -44 0
96 -56 -31 0
16 4 -14 0
2 125 -7 0
34 43 -44 0
127 -57 -144 0
46 -161 -133 0
-67 -190 -115 0
94 -147 -60 0
180 44 -144 0
81 -58 -170 0
185 171 -60 0
78 73 -184 0
187 -158 -108 0
158 164 -153 0
145 -157 -31 0
5 129 -194 0
-21 -129 -148 0
129 143 -177 0
75 -50 -87 0
73 168 -97 0
18 -80 -33 0
72 -145 -86 0
142 152 172 0
14 130 -68 0
149 47 15 0
-46 -66 -82 0
122 159 -46 0
145 -31 -99 0
138 97 61 0
83 121 -15 0
115 34 57 0
143 -127 -86 0
85 -77 -12 0
191 182 -115 0
71 79 94 0
175 143 -122 0
84 -162 -148 0
75 97 -194 0
71 -75 -27 0
-5 -21 -170 0
162 29 -27 0
20 86 -118 0
93 -185 -1 0
14 -121 -65 0
9 134 -141 0
165 96 -134 0
56 156 196 0
178 -89 -21 0
66 93 -20 0
26 69 -127 0
14 -146 -173 0
40 -161 -170 0
132 -131 -52 0
107 -43 -87 0
186 -168 -73 0
165 -1 -185 0
76 91 186 0
108 129 -144 0
119 -173 -62 0
-179 -115 -84 0
166 3 -18 0
191 152 171 0
75 57 40 0
182 183 -107 0
42 -8 -35 0
-190 -53 -129 0
200 -72 -49 0
51 32 -68 0
81 -118 -16 0
103 -137 -142 0
-152 -16 -68 0
98 -125 -179 0
41 -147 -102 0
10 173 103 0
34 -139 -123 0
7 180 99 0
182 70 -44 0
158 106 66 0
54 114 -50 0
99 -156 -81 0
85 -126 -11 0
175 189 47 0
38 2 -125 0
27 38 -10 0
146 -189 -163 0
124 92 -181 0
102 85 -92 0
-46 -194 -111 0
181 -70 -27 0
155 -61 -178 0
75 -154 -50 0
77 107 182 0
165 -23 -180 0
135 -60 -192 0
12 -19 -129 0
49 -53 -41 0
114 196 -16 0
-66 -21 -44 0
93 117 -80 0
43 -44 -191 0
128 170 -166 0
-157 -123 -38 0
193 125 -128 0
72 55 104 0
179 -167 -6 0
197 -119 -70 0
58 -75 -148 0
194 139 -126 0
39 116 84 0
166 97 -70 0
146 -111 -56 0
90 -30 -62 0
122 -50 -180 0
-104 -145 -135 0
131 -125 -95 0
69 72 -159 0
56 160 -94 0
169 18 -154 0
145 43 -27 0
143 -84 -66 0
183 -188 -194 0
165 -49 -169 0
176 53 -181 0
72 -190 -161 0
89 129 -195 0
69 159 -25 0
180 45 -113 0
6 195 -39 0
126 129 -14 0
-26 -167 -191 0
-19 -104 -70 0
32 -61 -43 0
162 113 -18 0
171 23 -184 0
103 154 -121 0
118 -69 -3 0
34 57 134 0
77 53 -190 0
108 72 -30 0
146 27 -40 0
153 120 -131 0
89 -121 -89 0
200 -15 -159 0
62 -125 -77 0
102 81 -187 0
-44 -38 -90 0
19 -158 -122 0
98 142 182 0
175 128 -134 0
7 174 -2 0
122 159 -174 0
129 131 86 0
14 167 53 0
-151 -10 -133 0
-152 -29 -187 0
105 145 -54 0
125 160 -104 0
16 186 -125 0
165 -110 -175 0
119 -78 -128 0
18 34 -166 0
38 179 -79 0
114 190 -172 0
48 -47 -75 0
68 -138 -195 0
51 113 -33 0
-29 -68 -90 0
100 -143 -114 0
-58 -169 -130 0
131 38 -28 0
34 68 46 0
132 138 -39 0
16 97 -135 0
160 -179 -123 0
114 141 -142 0
10 -70 -41 0
-130 -56 -2 0
83 -42 -102 0
68 -51 -194 0
99 -86 -46 0
-166 -54 -121 0
21 -55 -50 0
1 24 -162 0
25 150 -45 0
122 37 91 0
-28 -91 -102 0
27 -48 -8 0
57 143 183 0
192 52 -63 0
81 -65 -141 0
88 138 -88 0
130 -194 -16 0
20 -169 -102 0
24 -46 -124 0
166 -142 -58 0
16 -36 -150 0
165 41 -22 0
188 114 -62 0
120 -106 -148 0
118 177 -163 0
157 -111 -72 0
135 63 -6 0
47 161 -127 0
171 -113 -31 0
120 1 -200 0
171 -119 -118 0
91 122 -147 0
51 46 -146 0
-59 -179 -93 0
64 142 -175 0
124 -126 -13 0
-190 -78 -53 0
81 -29 -24 0
48 106 -151 0
23 40 -149 0
129 -69 -113 0
23 -131 -7 0
106 -40 -47 0
184 -182 -173 0
68 -173 -42 0
120 -190 -88 0
120 2 -142 0
34 52 156 0
-35 -27 -133 0
58 147 -119 0
28 90 -59 0
125 -184 -44 0
67 -124 -50 0
47 -4 -94 0
168 -31 -110 0
82 -43 -129 0
81 -109 -60 0
11 187 -86 0
6 194 -184 0
80 -37 -191 0
114 -102 -1 0
56 -88 -108 0
41 23 -4 0
19 -99 -1 0
64 136 -63 0
159 162 -198 0
42 -2 -138 0
-112 -155 -120 0
175 67 -144 0
16 129 -162 0
30 143 -128 0
19 167 -4 0
42 117 -75 0
84 -154 -142 0
105 184 -1 0
65 140 195 0
32 51 -16 0
-161 -2 -151 0
180 114 88 0
167 172 114 0
55 -43 -173 0
-174 -53 -127 0
22 98 -76 0
97 168 -4 0
131 -156 -76 0
138 126 148 0
151 -119 -132 0
103 7 -101 0
58 57 -93 0
98 146 -6 0
132 64 -45 0
56 -158 -156 0
154 -195 -164 0
119 -179 -169 0
4 -45 -86 0
184 57 -166 0
175 55 -85 0
31 -6 -44 0
126 58 -63 0
24 43 19 0
56 36 -99 0
72 -15 -59 0
9 41 -77 0
177 -187 -111 0
20 124 -115 0
-54 -94 -89 0
119 -85 -177 0
24 19 -121 0
183 197 -26 0
-80 -19 -111 0
38 197 -139 0
-122 -189 -70 0
130 -1 -3 0
114 -56 -12 0
156 101 85 0
89 25 -94 0
123 152 -167 0
73 -125 -162 0
64 7 16 0
146 -167 -37 0
41 13 -161 0
122 64 -60 0
143 148 -159 0
102 -105 -198 0
161 14 -178 0
171 33 -40 0
124 163 -19 0
107 150 95 0
29 -47 -128 0
139 153 119 0
67 112 126 0
140 34 -129 0
-78 -175 -141 0
-164 -6 -67 0
105 79 -73 0
96 66 -198 0
40 -87 -140 0
12 140 -170 0
66 -105 -107 0
55 126 -44 0
58 -186 -45 0
107 -57 -102 0
134 197 -25 0
32 -58 -1 0
148 -139 -165 0
163 94 107 0
54 -10 -164 0
26 135 157 0
116 118 -127 0
67 -8 -51 0
74 51 -69 0
141 152 120 0
80 -162 -195 0
63 2 -178 0
89 -9 -169 0
9 44 -171 0
108 144 -164 0
63 -110 -188 0
126 121 -37 0
193 -5 -100 0
157 94 -135 0
172 132 -101 0
41 82 -84 0
81 82 -57 0
189 35 -161 0
188 -104 -155 0
59 -76 -139 0
-123 -62 -41 0
140 38 -183 0
90 98 -118 0
41 115 -168 0
139 -87 -111 0
14 2 77 0
197 -167 -52 0
88 107 27 0
196 -191 -68 0
175 -160 -154 0
199 150 15 0
54 172 -143 0
120 121 -180 0
147 -161 -155 0
178 -127 -30 0
124 -111 -21 0
103 -108 -22 0
45 5 43 0
69 -41 -162 0
67 141 -11 0
113 -145 -154 0
79 133 -105 0
132 68 -48 0
-80 -185 -104 0
123 189 -7 0
80 -155 -82 0
101 119 -93 0
-120 -37 -154 0
194 59 2 0
-149 -40 -162 0
54 -153 -142 0
192 -150 -184 0
147 -43 -188 0
54 -156 -105 0
131 -92 -64 0
193 -7 -104 0
156 68 -10 0
178 -105 -70 0
67 140 -135 0
37 92 -98 0
-117 -48 -50 0
186 -8 -145 0
137 -198 -189 0
1 -2 -120 0
82 -118 -4 0
84 -156 -125 0
88 199 -18 0
92 164 -14 0
120 -196 -33 0
152 86 -94 0
18 35 5 0
97 -106 -121 0
71 -142 -83 0
188 176 -127 0
-82 -48 -148 0
131 49 -73 0
183 55 178 0
123 -44 -29 0
151 64 160 0
37 14 -109 0
137 -94 -55 0
177 108 -64 0
155 -31 -61 0
188 -196 -192 0
13 153 -155 0
126 123 -91 0
117 -101 -108 0
73 -162 -136 0
141 91 -191 0
194 48 23 0
109 -127 -145 0
57 -148 -146 0
22 196 99 0
-38 -162 -66 0
68 -19 -134 0
152 85 -173 0
79 102 -135 0
-189 -5 -70 0
-80 -53 -142 0
12 -25 -179 0
57 41 -128 0
179 13 -72 0
42 43 31 0
185 -197 -17 0
12 -70 -116 0
-5 -12 -91 0
130 -2 -50 0
154 172 -182 0
166 94 -189 0
153 100 191 0
57 -65 -132 0
158 -48 -183 0
-177 -181 -70 0
102 -48 -10 0
126 38 59 0
143 -67 -72 0
106 -28 -177 0
-188 -111 -102 0
89 -158 -188 0
65 -46 -87 0
182 149 -157 0
86 -75 -65 0
140 -80 -35 0
160 155 -168 0
141 122 58 0
-132 -176 -97 0
174 -143 -17 0
121 55 -51 0
-102 -25 -178 0
150 132 -63 0
-31 -73 -2 0
158 101 -60 0
-176 -52 -115 0
-161 -77 -4 0
153 37 -38 0
44 -101 -160 0
3 -62 -145 0
132 74 -9 0
1 -147 -170 0
