c s2_kcnf_neg_MultiScaleCMA
p cnf 200 1000
38 -130 -127 0
164 -183 -73 0
136 150 -183 0
44 69 171 0
27 -73 -10 0
126 -154 -156 0
-43 -174 -178 0
51 32 20 0
168 104 -156 0
11 147 -53 0
18 184 6 0
102 -180 -150 0
199 134 -140 0
62 40 -10 0
148 113 -138 0
-115 -153 -31 0
99 195 -66 0
199 -8 -35 0
180 66 -131 0
63 125 -79 0
25 179 -33 0
-104 -99 -70 0
164 15 144 0
79 43 89 0
161 -163 -59 0
74 92 -85 0
-100 -72 -46 0
194 35 153 0
-37 -12 -142 0
128 6 -87 0
54 -64 -149 0
-3 -102 -61 0
60 93 -139 0
175 -36 -90 0
36 117 -23 0
157 198 -107 0
59 -79 -11 0
171 -108 -138 0
63 17 -46 0
70 19 -149 0
190 -90 -182 0
53 93 -89 0
155 -58 -130 0
163 172 -26 0
-94 -69 -7 0
90 -196 -170 0
142 115 196 0
172 58 -61 0
47 -36 -114 0
163 -6 -173 0
33 45 66 0
199 -173 -143 0
128 191 -195 0
66 134 32 0
-196 -68 -139 0
22 -131 -15 0
19 38 42 0
76 -69 -156 0
158 29 -158 0
45 -91 -136 0
160 -121 -116 0
128 114 -174 0
118 68 159 0
50 -151 -50 0
187 185 -5 0
86 4 -141 0
72 -3 -57 0
13 136 -183 0
50 -155 -57 0
11 -84 -149 0
71 -75 -92 0
39 38 -73 0
73 60 -169 0
96 -179 -52 0
-62 -102 -71 0
132 -34 -186 0
128 -132 -178 0
-62 -170 -33 0
136 153 -114 0
137 135 15 0
32 -22 -94 0
104 80 -78 0
113 128 -124 0
123 91 -143 0
92 -180 -195 0
-52 -187 -19 0
84 144 51 0
-5 -69 -160 0
35 174 -161 0
11 -186 -177 0
104 -141 -151 0
34 -167 -153 0
86 136 -158 0
123 83 -135 0
173 178 -158 0
43 -123 -154 0
123 -1 -57 0
-35 -88 -42 0
42 -176 -151 0
153 195 -7 0
191 -123 -88 0
38 -199 -153 0
45 85 -73 0
51 -18 -90 0
5 -36 -21 0
-194 -175 -85 0
199 157 95 0
198 -174 -69 0
32 31 171 0
148 43 -170 0
45 -45 -42 0
-108 -131 -107 0
76 117 -112 0
151 -6 -102 0
105 99 -57 0
63 99 -45 0
51 125 129 0
169 -183 -200 0
143 125 93 0
122 68 -90 0
95 127 -162 0
116 192 -23 0
193 195 -148 0
44 -148 -30 0
56 -154 -6 0
185 -123 -80 0
89 117 -76 0
55 -95 -109 0
104 91 -89 0
40 100 -167 0
29 174 -47 0
151 159 -142 0
87 180 -145 0
6 69 -109 0
51 195 -90 0
108 -132 -48 0
66 -24 -137 0
124 73 -58 0
118 -65 -37 0
-137 -93 -139 0
55 129 -97 0
162 143 -125 0
19 75 144 0
108 93 95 0
-190 -112 -175 0
164 3 -56 0
116 -117 -10 0
37 105 -124 0
67 165 186 0
165 180 -32 0
177 -30 -177 0
151 190 -190 0
198 74 -133 0
13 -86 -166 0
67 -109 -88 0
90 72 -72 0
102 88 -166 0
137 114 154 0
29 -186 -194 0
178 -22 -25 0
135 -18 -173 0
38 -129 -11 0
91 -189 -140 0
159 -59 -121 0
41 65 150 0
136 -52 -197 0
83 1 -41 0
164 6 -113 0
111 -169 -119 0
-195 -7 -88 0
97 9 -184 0
-180 -75 -44 0
189 77 119 0
41 148 -34 0
129 142 36 0
-4 -153 -34 0
124 130 -150 0
142 66 8 0
195 106 -26 0
79 -127 -140 0
78 107 -48 0
114 113 -197 0
137 -49 -22 0
96 -126 -173 0
64 -90 -105 0
163 179 -30 0
17 -41 -40 0
74 -47 -137 0
91 -166 -147 0
-173 -105 -1 0
87 -128 -12 0
112 123 -65 0
95 -75 -165 0
121 147 -26 0
186 188 -118 0
128 -68 -82 0
97 162 90 0
-199 -196 -83 0
153 194 29 0
105 -175 -18 0
101 -163 -90 0
113 -69 -98 0
131 -9 -73 0
169 97 45 0
54 176 -71 0
66 -16 -192 0
73 47 -58 0
195 -103 -134 0
197 -18 -60 0
70 93 -113 0
2 124 -23 0
-160 -72 -61 0
80 29 -48 0
174 68 -189 0
42 95 110 0
18 97 -51 0
173 -125 -67 0
-67 -88 -80 0
199 -163 -33 0
7 -152 -159 0
175 -36 -65 0
193 145 -58 0
15 124 -51 0
57 179 -92 0
102 -138 -194 0
53 93 -135 0
29 53 138 0
135 175 -122 0
60 -168 -130 0
-126 -140 -119 0
63 -121 -119 0
195 31 130 0
61 157 -26 0
175 -158 -189 0
129 -191 -120 0
28 150 -41 0
118 38 110 0
45 71 -78 0
155 63 -14 0
166 42 -65 0
113 -131 -115 0
144 17 -41 0
94 -43 -37 0
13 -120 -81 0
64 -108 -69 0
11 -182 -22 0
-104 -19 -23 0
63 -144 -165 0
30 78 -198 0
73 -20 -59 0
65 126 -192 0
119 -15 -164 0
-20 -129 -95 0
-127 -41 -87 0
69 -181 -178 0
87 171 -84 0
75 134 -120 0
131 -24 -57 0
196 160 64 0
125 105 78 0
30 139 -13 0
8 -65 -51 0
107 73 -145 0
191 21 98 0
-149 -196 -33 0
66 196 -65 0
27 17 -12 0
-67 -200 -129 0
165 -105 -78 0
11 -97 -25 0
-130 -163 -122 0
59 34 164 0
138 148 68 0
185 134 -118 0
50 46 -171 0
136 -140 -131 0
101 31 -70 0
81 10 -38 0
55 25 -168 0
180 15 149 0
111 44 -115 0
70 108 -25 0
127 -177 -188 0
107 -31 -28 0
-86 -192 -36 0
-160 -21 -23 0
-185 -192 -70 0
131 128 -14 0
60 -48 -14 0
87 180 -184 0
160 -102 -60 0
43 90 -112 0
103 -118 -67 0
135 136 156 0
35 100 92 0
124 27 -181 0
164 146 -187 0
30 72 -50 0
184 61 -53 0
-93 -55 -174 0
168 157 -176 0
31 133 -75 0
68 -172 -51 0
80 -11 -114 0
17 16 -40 0
88 -40 -89 0
180 -157 -200 0
32 -128 -116 0
-97 -95 -200 0
161 -94 -34 0
102 91 -184 0
88 -56 -163 0
23 -93 -85 0
-147 -166 -170 0
65 101 -16 0
198 169 -178 0
90 -98 -190 0
97 176 -108 0
79 -103 -68 0
48 17 -121 0
177 63 -159 0
146 127 -182 0
49 -43 -117 0
119 145 154 0
149 118 -118 0
196 45 -166 0
175 71 -172 0
5 120 -140 0
30 -19 -58 0
137 -180 -150 0
158 -167 -182 0
173 171 193 0
197 128 -135 0
-109 -78 -142 0
54 110 -95 0
133 48 -153 0
78 -21 -116 0
11 15 -174 0
193 191 -11 0
-12 -36 -5 0
95 -59 -58 0
153 -56 -169 0
165 87 -3 0
141 60 -196 0
74 89 -50 0
85 24 -141 0
136 187 -160 0
132 -49 -56 0
-19 -65 -15 0
199 29 -191 0
120 162 176 0
100 22 118 0
25 107 -150 0
6 -183 -110 0
20 53 -126 0
156 143 -70 0
79 193 -72 0
-125 -179 -164 0
8 -39 -139 0
110 15 -98 0
136 -167 -189 0
16 161 146 0
185 147 170 0
8 -117 -6 0
132 99 -93 0
199 -96 -100 0
179 93 -54 0
73 15 -129 0
198 -127 -55 0
-151 -73 -113 0
79 195 81 0
76 -194 -43 0
52 -131 -189 0
167 160 -81 0
-74 -186 -80 0
81 71 130 0
110 161 -148 0
-28 -38 -29 0
35 77 -181 0
130 13 -92 0
-67 -179 -104 0
177 178 -27 0
4 -100 -105 0
67 25 -186 0
141 -63 -3 0
-26 -106 -186 0
182 -155 -53 0
-56 -81 -96 0
175 8 -33 0
135 29 -67 0
51 -77 -134 0
167 -4 -46 0
-137 -46 -175 0
114 -9 -185 0
106 3 17 0
171 122 -191 0
123 52 126 0
26 -5 -151 0
136 -7 -188 0
195 31 -118 0
79 8 -130 0
124 -57 -122 0
51 151 110 0
-39 -193 -168 0
56 -66 -98 0
-125 -54 -95 0
187 -126 -86 0
116 178 -186 0
-181 -61 -4 0
85 -71 -53 0
165 119 -82 0
1 -5 -108 0
107 -84 -44 0
73 74 72 0
122 113 52 0
101 -103 -185 0
4 87 -103 0
111 -171 -168 0
58 -112 -7 0
161 -177 -118 0
-46 -55 -127 0
51 63 -82 0
13 182 -108 0
31 -75 -187 0
45 58 -93 0
-193 -54 -76 0
68 6 132 0
134 44 146 0
174 41 -30 0
174 62 -66 0
-75 -132 -163 0
179 -68 -54 0
15 118 -14 0
37 -146 -60 0
155 102 -24 0
125 -72 -194 0
133 -68 -19 0
22 -35 -186 0
137 152 -160 0
-21 -175 -29 0
26 200 -96 0
36 184 18 0
-49 -105 -187 0
96 -155 -191 0
111 -97 -28 0
39 -155 -132 0
188 58 -182 0
57 132 -50 0
59 116 -102 0
187 89 34 0
194 198 6 0
87 -94 -67 0
170 78 -44 0
63 150 10 0
119 -85 -197 0
23 146 -86 0
45 2 -20 0
148 86 -119 0
-46 -188 -48 0
181 143 -96 0
198 142 -80 0
80 94 -103 0
86 -43 -20 0
-64 -112 -34 0
191 114 -145 0
123 -197 -30 0
-158 -77 -170 0
-195 -76 -180 0
190 -19 -110 0
73 2 80 0
54 68 -199 0
31 185 -175 0
133 -59 -200 0
67 160 11 0
63 -94 -46 0
17 -80 -122 0
81 -166 -64 0
110 25 -78 0
142 108 -137 0
158 -169 -75 0
11 -58 -16 0
79 171 -1 0
-50 -133 -37 0
148 -167 -20 0
77 15 -118 0
65 66 47 0
123 24 -109 0
197 -174 -16 0
77 14 -159 0
142 169 -75 0
126 36 -199 0
-71 -170 -12 0
87 -149 -26 0
115 55 -194 0
187 -97 -121 0
87 -10 -145 0
-126 -114 -16 0
102 15 42 0
40 35 -18 0
-171 -155 -23 0
138 -1 -34 0
179 -26 -49 0
45 187 149 0
141 136 71 0
191 -1 -15 0
189 103 8 0
-192 -194 -136 0
181 -125 -51 0
140 -196 -112 0
55 -182 -154 0
47 -168 -162 0
157 118 -136 0
73 15 -88 0
-136 -174 -61 0
-53 -88 -106 0
43 162 -70 0
146 -135 -72 0
20 104 -183 0
77 92 -170 0
4 -102 -145 0
-43 -60 -67 0
30 41 -163 0
195 -32 -124 0
-138 -158 -129 0
12 58 -94 0
11 -34 -111 0
66 47 155 0
57 28 -110 0
106 171 -62 0
188 152 64 0
-5 -130 -11 0
22 -8 -178 0
41 -49 -46 0
149 -116 -144 0
76 -50 -69 0
57 -182 -147 0
107 -183 -171 0
64 156 -96 0
65 161 77 0
98 153 -33 0
49 113 -155 0
2 -92 -61 0
99 -140 -61 0
111 -157 -152 0
29 -142 -44 0
11 110 -117 0
58 104 -155 0
64 -139 -21 0
138 86 -43 0
91 -114 -70 0
117 -67 -12 0
165 -184 -120 0
-192 -32 -48 0
194 62 105 0
137 25 -109 0
78 -90 -69 0
30 -42 -145 0
-194 -12 -151 0
163 65 -10 0
74 44 80 0
-83 -73 -106 0
94 -125 -133 0
83 75 24 0
152 16 27 0
129 46 -139 0
129 -31 -135 0
5 89 145 0
120 141 -88 0
123 -179 -98 0
-156 -56 -58 0
193 54 -49 0
80 -103 -77 0
55 192 -152 0
128 -46 -185 0
197 4 -124 0
126 165 -44 0
137 142 -85 0
141 64 -1 0
3 92 -67 0
105 200 152 0
47 57 91 0
25 156 -111 0
14 142 -28 0
20 64 129 0
88 18 113 0
156 85 15 0
162 187 -167 0
-99 -43 -136 0
171 47 -177 0
94 181 -154 0
91 -71 -77 0
-107 -179 -140 0
54 6 -4 0
89 -31 -168 0
130 -7 -23 0
105 165 -195 0
196 -138 -162 0
69 -69 -163 0
144 -136 -196 0
163 119 177 0
28 111 16 0
132 128 -135 0
12 117 138 0
199 69 -195 0
110 -41 -129 0
67 87 31 0
138 84 -99 0
17 126 -96 0
18 -57 -47 0
175 -148 -80 0
173 128 -189 0
-27 -86 -99 0
9 -84 -23 0
-16 -101 -114 0
172 -37 -199 0
120 -94 -13 0
-200 -90 -89 0
9 -7 -151 0
-7 -73 -6 0
132 45 -87 0
12 3 56 0
28 116 -63 0
99 25 -99 0
143 -9 -27 0
43 -114 -9 0
64 95 -52 0
177 114 -74 0
111 84 -162 0
-37 -129 -29 0
166 131 -178 0
31 -104 -9 0
129 52 66 0
41 154 -186 0
25 173 -184 0
8 19 -139 0
177 44 -8 0
-18 -107 -68 0
-95 -121 -60 0
195 18 -98 0
116 -65 -161 0
14 17 145 0
39 -152 -24 0
-140 -8 -139 0
7 -138 -10 0
29 -100 -79 0
95 -186 -169 0
118 41 -53 0
112 -152 -137 0
4 87 -162 0
73 -49 -77 0
153 -158 -74 0
-26 -51 -30 0
158 74 -61 0
92 82 -63 0
147 72 -188 0
109 157 77 0
63 -194 -197 0
-33 -120 -26 0
51 92 24 0
157 92 76 0
66 51 177 0
170 53 -37 0
-90 -66 -18 0
187 -37 -145 0
38 -8 -76 0
199 -120 -8 0
8 -40 -127 0
111 -33 -119 0
-143 -12 -26 0
165 152 -140 0
68 40 -64 0
57 -92 -11 0
111 -76 -10 0
199 9 194 0
13 152 -58 0
96 -47 -102 0
-60 -96 -196 0
-93 -115 -64 0
127 132 96 0
190 -156 -92 0
148 76 -98 0
168 -106 -46 0
64 81 -188 0
104 -44 -195 0
-162 -64 -72 0
154 -52 -28 0
130 112 148 0
105 -111 -31 0
78 77 -62 0
122 106 -25 0
100 111 -151 0
159 66 -170 0
141 71 -33 0
133 35 107 0
146 106 -166 0
2 44 152 0
111 -136 -3 0
48 9 -192 0
103 111 104 0
183 88 41 0
199 128 -193 0
55 186 64 0
181 119 114 0
152 91 146 0
183 -92 -52 0
32 -78 -10 0
143 -39 -102 0
78 24 -2 0
151 93 182 0
103 134 -99 0
89 -41 -26 0
169 141 115 0
85 94 99 0
80 -136 -196 0
110 132 -13 0
103 127 -40 0
-73 -144 -170 0
136 30 -9 0
8 93 119 0
-24 -194 -190 0
64 -94 -63 0
167 -94 -17 0
69 91 30 0
58 123 -26 0
-163 -3 -145 0
149 66 -127 0
143 142 -46 0
63 -152 -120 0
99 -57 -7 0
170 -121 -132 0
-50 -130 -134 0
14 180 -74 0
48 169 -175 0
134 35 -14 0
26 -123 -37 0
52 99 -170 0
21 -16 -44 0
-127 -114 -19 0
119 113 -50 0
63 104 164 0
53 125 122 0
55 -191 -36 0
177 146 46 0
-197 -146 -117 0
63 34 62 0
-84 -145 -122 0
103 119 -94 0
140 -139 -156 0
189 89 -61 0
134 16 38 0
143 64 -111 0
167 -149 -126 0
127 131 -29 0
47 -82 -110 0
84 -185 -97 0
69 53 195 0
27 64 -178 0
14 2 -197 0
167 172 -85 0
154 184 141 0
20 179 -118 0
191 -91 -77 0
192 -169 -86 0
71 -26 -52 0
125 -147 -160 0
85 163 -66 0
-130 -22 -13 0
17 -111 -48 0
101 119 7 0
3 45 31 0
139 141 -14 0
72 71 186 0
29 193 -123 0
87 197 -181 0
59 117 193 0
70 114 -81 0
172 131 -132 0
91 -7 -13 0
198 -84 -123 0
-35 -122 -52 0
62 -95 -22 0
107 -96 -175 0
-19 -148 -82 0
199 -13 -94 0
-81 -50 -191 0
184 79 -20 0
144 -45 -178 0
93 42 -192 0
125 45 91 0
109 148 -173 0
49 157 -161 0
15 -174 -112 0
8 176 92 0
157 -128 -110 0
71 -90 -194 0
2 -71 -90 0
198 171 69 0
164 196 -147 0
79 -66 -168 0
183 188 -51 0
73 193 -170 0
159 54 -171 0
74 -197 -171 0
-121 -136 -93 0
58 -1 -38 0
143 -155 -124 0
63 -88 -1 0
119 70 26 0
169 47 39 0
-103 -30 -161 0
66 -66 -190 0
101 17 -198 0
169 113 -18 0
-100 -31 -34 0
63 161 -174 0
165 167 -36 0
98 -121 -51 0
196 157 129 0
46 57 -5 0
180 -198 -162 0
107 -72 -94 0
187 177 -149 0
179 101 -181 0
135 9 -56 0
137 42 -75 0
117 137 -72 0
39 174 -158 0
24 -140 -59 0
-86 -162 -27 0
5 163 -103 0
17 59 -98 0
38 23 -14 0
83 75 -9 0
147 -122 -163 0
-196 -16 -166 0
171 151 -16 0
-127 -166 -179 0
45 164 111 0
-178 -91 -16 0
116 -103 -155 0
77 141 -79 0
188 23 -66 0
29 -112 -91 0
33 95 -42 0
35 -118 -45 0
42 -147 -113 0
80 68 -56 0
-123 -39 -48 0
48 -137 -88 0
169 -125 -161 0
-55 -34 -179 0
101 -9 -84 0
34 -133 -92 0
157 -193 -145 0
95 86 -113 0
59 102 -2 0
-154 -118 -8 0
37 -120 -60 0
133 -112 -20 0
146 -124 -151 0
10 -3 -197 0
101 19 -11 0
-193 -168 -189 0
-100 -105 -17 0
79 -131 -186 0
198 -179 -1 0
81 16 -63 0
76 -138 -86 0
163 -27 -81 0
42 17 35 0
149 69 -34 0
-157 -160 -192 0
118 173 -118 0
138 -62 -144 0
129 122 -115 0
73 111 -39 0
138 117 -26 0
111 -97 -78 0
1 158 -89 0
140 -138 -132 0
160 161 -54 0
136 199 -24 0
119 -107 -127 0
153 40 -5 0
51 45 -112 0
71 -193 -90 0
86 34 -23 0
-21 -143 -91 0
89 42 76 0
147 -102 -193 0
-16 -73 -106 0
27 25 196 0
61 -98 -101 0
181 -194 -144 0
169 -69 -126 0
193 57 -88 0
-156 -150 -183 0
53 52 -115 0
21 125 -46 0
157 31 -194 0
12 -175 -146 0
173 142 -188 0
182 27 142 0
171 49 -84 0
61 101 -16 0
-102 -181 -56 0
5 58 -109 0
35 7 126 0
119 62 -1 0
62 -27 -58 0
119 65 -23 0
-108 -51 -73 0
2 96 -156 0
21 114 -178 0
161 37 -191 0
48 -102 -61 0
48 184 -198 0
173 -16 -137 0
109 116 -164 0
-179 -14 -129 0
149 -11 -181 0
142 -121 -195 0
31 -1 -198 0
141 123 35 0
144 113 -58 0
187 -186 -132 0
72 -33 -139 0
89 99 -77 0
163 -28 -19 0
90 185 -156 0
9 39 -124 0
67 -13 -136 0
83 17 -31 0
24 30 -187 0
20 128 -91 0
30 193 -52 0
111 166 133 0
134 95 -2 0
84 3 -140 0
18 -168 -73 0
101 125 111 0
77 141 35 0
71 -162 -120 0
15 24 -170 0
85 -65 -90 0
199 146 -144 0
97 -76 -133 0
176 25 64 0
194 -71 -75 0
154 159 131 0
104 49 103 0
-174 -117 -190 0
149 15 -136 0
93 -23 -126 0
74 -78 -42 0
9 200 -164 0
21 -8 -9 0
86 110 -31 0
36 80 -3 0
75 96 -94 0
91 83 -194 0
148 129 160 0
28 -36 -42 0
-151 -74 -20 0
71 -40 -183 0
72 32 -136 0
193 101 -108 0
128 -13 -141 0
132 33 -8 0
182 15 -187 0
55 -53 -43 0
2 -74 -103 0
6 -54 -166 0
69 179 -165 0
48 8 60 0
89 13 -49 0
98 -32 -78 0
152 71 -69 0
-92 -9 -117 0
3 -175 -194 0
40 147 -133 0
26 -107 -109 0
65 124 -200 0
164 79 136 0
161 -110 -145 0
-144 -118 -72 0
175 -47 -173 0
176 47 -92 0
46 107 -22 0
35 -140 -131 0
35 -15 -46 0
38 100 -71 0
130 175 -159 0
119 168 126 0
77 25 95 0
-109 -91 -15 0
30 13 134 0
-92 -139 -32 0
177 162 -167 0
101 -6 -31 0
