c s2_kcnf_log_MultiCMA
p cnf 200 1000
74 -140 -102 0
62 -69 -167 0
185 31 -113 0
77 5 -86 0
194 -168 -125 0
152 99 -145 0
34 35 57 0
196 -130 -75 0
85 -43 -188 0
189 87 -35 0
107 167 -36 0
59 -113 -97 0
45 131 -16 0
77 153 -168 0
-198 -72 -106 0
4 -183 -44 0
86 104 84 0
42 18 -176 0
11 67 -115 0
158 -119 -10 0
138 -67 -4 0
137 -66 -163 0
167 -17 -41 0
182 89 183 0
108 137 -26 0
-110 -32 -127 0
3 48 -164 0
148 186 -17 0
172 15 -75 0
63 57 -8 0
173 -135 -166 0
164 65 -25 0
123 90 -188 0
31 87 30 0
20 -18 -98 0
-19 -107 -43 0
159 -114 -79 0
68 -63 -113 0
39 122 -81 0
-30 -180 -63 0
174 -140 -24 0
54 20 -106 0
147 48 -79 0
-92 -164 -166 0
64 139 -108 0
43 90 -101 0
103 113 -149 0
119 191 -122 0
80 -127 -39 0
115 -28 -54 0
184 10 -148 0
39 58 -147 0
189 150 -10 0
97 -148 -125 0
101 57 73 0
-45 -199 -115 0
31 94 -172 0
2 23 83 0
189 121 51 0
199 167 -81 0
113 145 126 0
73 46 -137 0
150 -4 -109 0
48 -106 -26 0
47 -34 -43 0
87 93 -183 0
189 17 -71 0
163 139 -57 0
1 41 61 0
93 -170 -126 0
157 190 -137 0
195 -143 -112 0
25 73 127 0
89 24 -102 0
168 -192 -68 0
3 -75 -169 0
196 48 -117 0
8 -65 -19 0
99 34 6 0
-33 -3 -179 0
59 -133 -150 0
112 17 -186 0
31 105 -188 0
193 -2 -163 0
168 132 -166 0
109 25 -187 0
16 -44 -36 0
190 195 -149 0
193 125 -22 0
120 197 -191 0
-9 -82 -121 0
12 58 146 0
36 180 -147 0
139 155 104 0
134 176 -96 0
-24 -101 -27 0
130 56 -71 0
177 -63 -8 0
146 -88 -97 0
5 158 -104 0
35 -101 -59 0
132 -90 -147 0
-107 -41 -119 0
17 -174 -47 0
191 70 -164 0
177 105 -105 0
11 -143 -151 0
167 62 86 0
-185 -8 -167 0
104 135 -140 0
13 -200 -45 0
130 -5 -22 0
31 -191 -175 0
50 -84 -185 0
96 79 -114 0
14 112 -77 0
31 167 -131 0
180 -188 -147 0
142 13 -116 0
191 89 60 0
35 -74 -100 0
179 30 -177 0
105 49 -118 0
188 108 -30 0
170 134 -171 0
-101 -140 -102 0
-46 -26 -38 0
125 163 -185 0
79 142 -198 0
195 25 82 0
132 -138 -4 0
131 157 -23 0
145 114 -85 0
65 -52 -21 0
162 137 -84 0
96 118 -36 0
47 182 115 0
105 -74 -166 0
53 -199 -151 0
136 146 -155 0
168 42 -60 0
73 -74 -85 0
49 76 -65 0
98 138 116 0
73 76 -108 0
160 -133 -63 0
25 8 -84 0
139 53 -145 0
42 51 169 0
-149 -146 -34 0
103 72 183 0
101 26 -138 0
10 111 -34 0
32 162 126 0
72 28 -52 0
-152 -138 -69 0
113 -90 -7 0
-123 -25 -186 0
168 79 -56 0
57 85 -158 0
170 176 132 0
183 -52 -139 0
44 -80 -161 0
89 -199 -138 0
77 -59 -34 0
165 -139 -17 0
129 47 -146 0
48 1 -188 0
103 -157 -15 0
6 40 -50 0
84 -168 -59 0
-198 -100 -29 0
192 67 -172 0
116 162 -180 0
-88 -119 -44 0
-129 -169 -41 0
11 -185 -136 0
135 141 104 0
38 147 -134 0
58 88 -66 0
151 7 -164 0
164 -190 -143 0
28 100 175 0
187 71 108 0
178 -78 -163 0
25 -75 -189 0
7 68 -93 0
119 -128 -81 0
46 -74 -100 0
169 14 -60 0
22 91 -181 0
37 132 135 0
107 133 3 0
160 -103 -114 0
-129 -75 -144 0
139 31 -126 0
163 21 -81 0
116 197 -183 0
185 67 -189 0
91 -123 -69 0
10 -102 -172 0
147 -25 -102 0
54 182 -162 0
82 15 180 0
21 112 -89 0
157 98 59 0
49 117 -49 0
109 132 -191 0
165 -90 -10 0
1 139 -146 0
84 -100 -95 0
111 -108 -131 0
15 90 -91 0
73 44 18 0
141 33 -99 0
77 -12 -68 0
154 -60 -134 0
174 -36 -112 0
103 125 9 0
95 -181 -179 0
52 70 -75 0
-166 -189 -59 0
108 -146 -189 0
159 -141 -190 0
-114 -148 -134 0
44 -120 -66 0
150 114 -143 0
120 16 -74 0
141 -165 -121 0
181 16 -12 0
117 14 37 0
69 199 -102 0
192 58 -102 0
199 183 -162 0
59 -56 -108 0
68 -80 -163 0
138 105 -22 0
51 200 -10 0
42 182 163 0
111 -164 -194 0
105 173 -163 0
14 -2 -91 0
25 182 -52 0
-194 -180 -14 0
139 -78 -108 0
107 -190 -91 0
99 36 -122 0
126 37 -146 0
-173 -10 -103 0
98 92 -15 0
36 174 -10 0
111 -9 -17 0
50 -14 -30 0
110 -113 -51 0
57 -114 -9 0
138 65 -125 0
105 -114 -168 0
37 49 -131 0
130 120 -55 0
139 133 160 0
19 -117 -93 0
165 92 -138 0
41 78 -40 0
60 -78 -145 0
35 58 -52 0
51 -113 -186 0
123 54 -122 0
164 -128 -106 0
30 69 10 0
119 43 -57 0
14 -171 -161 0
107 47 -128 0
88 -153 -187 0
9 58 -113 0
121 -58 -166 0
196 -136 -48 0
192 69 -177 0
187 -40 -158 0
160 195 -182 0
48 -42 -120 0
134 89 -20 0
108 -144 -65 0
16 -196 -161 0
152 -74 -141 0
182 -98 -161 0
154 88 -157 0
157 156 152 0
7 133 77 0
19 -91 -169 0
21 -135 -161 0
187 -184 -24 0
-157 -80 -185 0
60 52 -140 0
184 -194 -95 0
68 194 -13 0
105 -101 -37 0
1 -64 -159 0
-96 -113 -191 0
195 21 -29 0
40 175 47 0
135 122 -123 0
44 -180 -61 0
164 -174 -48 0
98 159 -24 0
29 181 -105 0
105 21 -116 0
48 -124 -148 0
39 200 -184 0
-95 -62 -57 0
167 163 -188 0
79 -86 -200 0
15 94 -197 0
59 199 -77 0
4 -53 -181 0
27 -23 -133 0
20 -17 -85 0
50 -199 -97 0
-193 -62 -70 0
187 -171 -161 0
-200 -26 -47 0
-106 -180 -20 0
141 53 -88 0
5 155 -131 0
117 149 -9 0
69 85 -193 0
3 179 -98 0
100 18 -129 0
44 -200 -23 0
95 100 -78 0
40 148 -165 0
6 -167 -140 0
34 -55 -197 0
160 -25 -196 0
164 -74 -51 0
56 122 -198 0
103 154 133 0
122 -92 -150 0
188 116 -109 0
-39 -61 -175 0
68 155 -6 0
128 -47 -49 0
62 3 -102 0
155 123 -152 0
49 133 -9 0
92 26 184 0
128 82 -120 0
198 14 75 0
132 -144 -15 0
-180 -75 -8 0
93 7 197 0
93 97 51 0
-195 -200 -144 0
-157 -2 -162 0
110 137 -160 0
27 -115 -193 0
199 -177 -81 0
43 77 -179 0
-62 -22 -48 0
147 -106 -86 0
155 152 -116 0
32 137 -101 0
128 60 -60 0
32 197 -108 0
186 -23 -170 0
183 167 -121 0
57 -32 -38 0
172 88 -148 0
62 -93 -195 0
181 39 -94 0
-141 -86 -128 0
10 1 -23 0
98 52 -141 0
13 143 51 0
105 66 -72 0
90 90 7 0
188 -44 -96 0
144 80 -138 0
132 -31 -23 0
55 -91 -172 0
164 158 -57 0
190 17 37 0
129 -50 -2 0
137 -153 -122 0
60 -178 -119 0
46 159 -170 0
91 13 -34 0
52 12 144 0
137 -109 -171 0
199 -14 -140 0
196 -78 -143 0
49 -119 -60 0
178 131 -60 0
9 -93 -116 0
99 39 -113 0
11 95 -108 0
41 -158 -98 0
-45 -176 -17 0
117 -135 -29 0
109 169 -117 0
131 110 -125 0
192 -133 -103 0
193 11 -2 0
184 -32 -161 0
170 79 -19 0
195 169 -76 0
152 -98 -10 0
71 -81 -43 0
101 122 111 0
99 -89 -194 0
82 -6 -149 0
128 121 135 0
10 -112 -20 0
162 144 -9 0
3 -18 -72 0
172 111 -194 0
49 76 -17 0
22 165 -69 0
67 -41 -44 0
-88 -74 -58 0
58 -138 -122 0
-165 -15 -92 0
167 -75 -96 0
132 -112 -133 0
118 -200 -17 0
7 -63 -150 0
62 -162 -196 0
57 -25 -12 0
47 103 -76 0
-199 -49 -193 0
91 -149 -71 0
58 -44 -129 0
168 -95 -121 0
32 -96 -143 0
7 -33 -105 0
-27 -183 -164 0
87 193 -104 0
119 143 132 0
159 197 143 0
104 148 89 0
-108 -180 -6 0
118 73 -116 0
160 167 179 0
17 92 -136 0
11 -112 -155 0
16 165 -90 0
106 -60 -159 0
127 21 -36 0
28 111 80 0
111 150 -151 0
65 -194 -15 0
27 117 -196 0
199 151 -77 0
199 125 -81 0
70 -55 -200 0
199 -121 -136 0
191 76 73 0
167 19 -91 0
192 -5 -13 0
135 -200 -119 0
148 144 -32 0
46 74 96 0
126 -70 -16 0
119 86 -153 0
23 -173 -200 0
38 -149 -119 0
77 189 -154 0
167 20 -44 0
73 -59 -119 0
181 176 6 0
25 113 -72 0
-13 -66 -131 0
110 65 -99 0
19 -19 -15 0
108 132 172 0
88 67 190 0
132 -94 -7 0
167 18 -39 0
136 188 -91 0
66 175 -41 0
117 128 -13 0
78 -55 -187 0
98 -1 -40 0
81 162 -129 0
159 71 -47 0
132 -19 -64 0
129 26 -75 0
15 190 169 0
-158 -99 -149 0
53 199 -160 0
64 145 -97 0
181 -80 -30 0
82 -155 -184 0
73 131 -88 0
-122 -177 -138 0
101 -83 -58 0
36 185 -122 0
59 6 -89 0
24 -55 -52 0
94 -120 -92 0
11 149 -124 0
187 -163 -24 0
99 -134 -139 0
63 -167 -172 0
110 -83 -75 0
140 187 -116 0
167 -197 -89 0
152 54 -168 0
73 134 38 0
168 -19 -12 0
57 166 -172 0
1 -3 -106 0
9 -144 -58 0
-42 -32 -77 0
76 -23 -174 0
36 145 -43 0
72 45 -113 0
25 -126 -38 0
173 -197 -58 0
-114 -86 -102 0
-155 -24 -142 0
124 42 -74 0
190 -16 -61 0
5 -146 -165 0
76 -95 -193 0
50 118 -50 0
112 -122 -144 0
113 42 -89 0
131 62 -79 0
190 32 -45 0
199 97 -147 0
190 188 -182 0
56 193 155 0
153 182 -145 0
52 135 -140 0
-195 -83 -129 0
96 -186 -115 0
36 -17 -175 0
112 -200 -55 0
98 127 -9 0
-96 -54 -173 0
-184 -155 -135 0
53 -187 -69 0
90 61 -28 0
68 -145 -198 0
58 89 200 0
-53 -161 -73 0
141 -96 -126 0
198 84 -15 0
197 -131 -115 0
84 121 -112 0
81 21 -59 0
112 -195 -2 0
123 -108 -28 0
174 196 -36 0
51 31 -13 0
159 -85 -14 0
182 107 -43 0
170 66 -191 0
22 -148 -120 0
177 95 -87 0
146 -177 -136 0
180 51 -99 0
78 -199 -18 0
140 46 120 0
66 133 31 0
101 -19 -125 0
-178 -163 -22 0
127 153 -33 0
151 107 -2 0
129 -99 -86 0
-171 -7 -56 0
76 89 -162 0
179 152 135 0
146 -131 -36 0
142 -85 -192 0
85 -185 -100 0
-179 -64 -56 0
3 10 100 0
142 39 190 0
12 21 -194 0
160 -18 -93 0
9 -179 -9 0
66 155 -141 0
52 -52 -166 0
111 140 31 0
-192 -112 -149 0
124 -131 -100 0
96 -40 -30 0
57 104 -118 0
-75 -28 -14 0
85 -183 -153 0
-102 -45 -122 0
173 68 -101 0
-186 -123 -180 0
-72 -74 -126 0
156 154 136 0
50 115 -22 0
16 186 -102 0
-80 -57 -66 0
92 130 28 0
121 -181 -16 0
78 -131 -187 0
134 -143 -62 0
162 -182 -152 0
-197 -83 -91 0
198 -27 -70 0
35 179 -127 0
5 165 -75 0
83 86 -20 0
45 -160 -153 0
51 157 -68 0
69 -116 -155 0
18 -127 -24 0
195 180 -195 0
33 50 -195 0
73 167 -136 0
24 -4 -6 0
126 37 -31 0
75 109 -11 0
53 142 -121 0
141 71 -64 0
178 155 -142 0
171 -74 -134 0
97 91 -110 0
-29 -173 -49 0
153 -111 -114 0
79 -59 -118 0
109 -37 -128 0
157 -124 -53 0
31 117 -143 0
53 -171 -12 0
-161 -137 -138 0
99 -102 -97 0
17 -72 -35 0
105 77 23 0
182 -41 -13 0
168 -103 -97 0
30 52 -198 0
5 -36 -41 0
16 122 108 0
61 -23 -134 0
148 -148 -74 0
132 -174 -40 0
121 -166 -79 0
33 61 -37 0
38 30 -49 0
126 -159 -112 0
33 -129 -130 0
82 138 -47 0
153 80 111 0
35 130 -166 0
119 195 -14 0
160 72 -52 0
71 101 -157 0
68 179 -25 0
45 -66 -136 0
116 25 33 0
126 11 -58 0
82 180 128 0
20 116 105 0
87 43 -77 0
120 122 -177 0
-63 -152 -155 0
18 72 -12 0
165 83 135 0
40 186 105 0
182 14 -4 0
97 -195 -60 0
124 182 -102 0
2 160 -134 0
121 22 -79 0
151 198 -61 0
46 -94 -44 0
132 -26 -38 0
72 50 190 0
191 -41 -2 0
79 133 -90 0
198 88 -84 0
-186 -32 -21 0
106 69 -156 0
126 -102 -75 0
97 142 -192 0
57 -56 -190 0
120 -75 -19 0
186 130 184 0
117 -144 -8 0
101 78 -23 0
3 51 -177 0
71 191 -125 0
30 -153 -170 0
172 148 -13 0
130 75 135 0
166 45 114 0
53 183 -198 0
144 76 -174 0
71 -123 -165 0
196 -30 -49 0
181 96 -32 0
151 21 -110 0
157 -200 -15 0
120 -124 -107 0
182 -13 -47 0
175 -60 -142 0
67 156 74 0
103 193 -15 0
187 -99 -1 0
-151 -27 -188 0
191 -181 -180 0
168 -93 -68 0
43 3 128 0
86 -16 -34 0
130 -49 -82 0
50 49 -119 0
48 -68 -77 0
60 -174 -12 0
56 -31 -9 0
199 -186 -114 0
46 -49 -192 0
131 73 55 0
143 27 -13 0
-166 -159 -146 0
199 191 -72 0
189 87 -40 0
57 -16 -189 0
103 115 47 0
61 -178 -147 0
-150 -47 -37 0
196 135 -13 0
124 -10 -40 0
96 46 -38 0
179 -140 -150 0
-26 -110 -67 0
198 -154 -15 0
5 -45 -65 0
-185 -133 -171 0
171 36 -4 0
-97 -92 -96 0
31 141 75 0
-80 -43 -30 0
16 -137 -46 0
31 76 -82 0
31 -14 -8 0
69 -183 -78 0
94 -141 -112 0
70 124 -79 0
31 27 -159 0
25 134 -25 0
183 -173 -124 0
126 124 -73 0
154 -195 -106 0
1 10 -184 0
24 40 -60 0
198 -116 -27 0
132 37 -51 0
71 151 -81 0
-7 -31 -49 0
49 33 54 0
99 121 -72 0
118 11 -87 0
135 -43 -126 0
190 14 -132 0
129 40 182 0
109 4 -193 0
114 132 -84 0
108 -91 -171 0
148 137 -69 0
126 104 -13 0
178 15 -186 0
157 -83 -124 0
91 -161 -53 0
54 -199 -191 0
54 -67 -132 0
8 20 122 0
-107 -7 -30 0
78 21 164 0
53 137 103 0
135 -9 -26 0
192 141 -125 0
48 -111 -176 0
84 41 101 0
133 25 -179 0
76 -34 -156 0
146 107 76 0
98 -145 -131 0
142 -47 -92 0
-147 -72 -130 0
1 132 36 0
188 99 -124 0
190 171 -20 0
10 8 185 0
31 -94 -193 0
40 -169 -108 0
113 109 -127 0
-164 -48 -65 0
122 -188 -156 0
16 171 107 0
-137 -36 -134 0
131 -140 -23 0
118 9 -156 0
24 -36 -145 0
-75 -73 -59 0
161 73 -133 0
74 186 -106 0
92 -48 -114 0
114 -155 -37 0
97 172 115 0
-149 -127 -90 0
123 58 -199 0
78 97 108 0
-46 -20 -22 0
63 -53 -27 0
-15 -149 -194 0
170 56 -58 0
65 67 3 0
172 -83 -28 0
3 -29 -153 0
119 11 -187 0
137 120 -143 0
-59 -198 -162 0
-149 -56 -165 0
196 70 145 0
23 24 -78 0
199 133 -142 0
164 1 177 0
42 136 -1 0
139 -111 -184 0
101 -20 -105 0
45 157 -71 0
130 145 -49 0
72 136 -95 0
167 53 73 0
79 -21 -61 0
198 137 132 0
165 -116 -115 0
169 113 -19 0
35 -78 -190 0
165 142 150 0
130 38 -103 0
41 120 -65 0
37 65 -172 0
124 51 -51 0
3 -54 -151 0
-150 -138 -28 0
181 -1 -74 0
96 -64 -14 0
47 83 -18 0
104 -181 -34 0
18 -184 -41 0
94 -110 -192 0
29 32 -140 0
74 130 -90 0
137 38 186 0
127 120 -157 0
37 -12 -169 0
110 109 -66 0
113 29 -119 0
161 -48 -39 0
-148 -112 -68 0
191 -32 -95 0
124 181 6 0
33 -191 -131 0
188 -42 -140 0
86 -41 -170 0
39 135 115 0
98 -129 -42 0
131 146 -47 0
46 140 -128 0
87 -74 -187 0
143 58 -101 0
185 25 -47 0
160 105 138 0
139 -116 -155 0
126 115 160 0
-90 -101 -111 0
2 -67 -57 0
-85 -8 -179 0
33 21 111 0
12 27 -32 0
125 -150 -55 0
3 129 -139 0
33 -132 -166 0
158 163 -49 0
193 -153 -108 0
9 135 -167 0
21 50 -103 0
68 -134 -123 0
169 -100 -6 0
70 43 -110 0
73 -143 -119 0
45 42 121 0
192 -124 -109 0
54 95 -110 0
197 -82 -79 0
21 73 106 0
127 31 -178 0
172 169 -81 0
-66 -8 -15 0
-101 -102 -97 0
187 200 163 0
119 62 157 0
-43 -123 -161 0
67 -92 -82 0
-62 -63 -133 0
17 28 95 0
104 42 185 0
182 -125 -154 0
85 6 -183 0
189 179 125 0
107 190 -21 0
26 54 -36 0
87 -140 -114 0
54 -33 -143 0
196 10 -74 0
123 -169 -82 0
64 112 -11 0
163 -183 -23 0
175 117 -51 0
76 29 -29 0
54 -41 -162 0
182 -59 -80 0
142 71 -14 0
151 6 -146 0
41 -120 -149 0
121 185 -37 0
167 69 182 0
165 -161 -157 0
-59 -167 -183 0
178 197 -131 0
115 24 -68 0
18 118 -123 0
146 -117 -21 0
99 189 -98 0
135 -25 -55 0
-29 -99 -88 0
-123 -139 -186 0
149 -33 -27 0
19 139 -170 0
162 -88 -177 0
112 -191 -21 0
178 196 176 0
87 103 -103 0
51 154 -41 0
85 -64 -88 0
76 -58 -152 0
89 114 -195 0
50 20 -128 0
96 126 -108 0
84 -5 -130 0
171 15 -178 0
130 174 -67 0
43 105 -97 0
181 -81 -35 0
169 131 -156 0
160 168 -2 0
190 51 -34 0
11 -129 -185 0
117 73 121 0
134 -85 -128 0
121 35 6 0
22 -195 -130 0
162 -117 -145 0
132 182 -16 0
-129 -183 -34 0
32 -168 -179 0
133 91 -114 0
61 62 -170 0
173 135 73 0
86 58 -125 0
83 -184 -163 0
94 -97 -95 0
-110 -77 -81 0
75 39 -107 0
26 150 -133 0
-159 -153 -156 0
141 71 187 0
-165 -32 -54 0
81 129 25 0
82 -77 -94 0
100 -195 -66 0
3 67 60 0
120 63 80 0
186 -156 -199 0
-44 -169 -152 0
-75 -158 -174 0
14 -14 -61 0
64 136 -145 0
195 64 -164 0
88 1 -83 0
175 -105 -140 0
155 3 -66 0
124 198 -16 0
168 113 -67 0
28 -133 -23 0
98 181 -76 0
42 -43 -164 0
5 12 -46 0
104 -144 -105 0
117 66 -35 0
183 -196 -193 0
99 29 -85 0
