c s2_kcnf_log_AnisotropicAdaptiveDiscreteOnePlusOne
p cnf 200 1000
-200 -200 -200 0
-200 -200 -200 0
-200 -200 -200 0
-200 -200 -200 0
-200 -200 -200 0
-200 -200 -200 0
-200 -200 -200 0
-200 -200 -200 0
-200 -200 -200 0
-200 -200 -200 0
-200 -200 -200 0
-200 -200 -200 0
-200 -200 -200 0
-200 -200 -200 0
-200 -200 -200 0
-200 -200 -200 0
-200 -200 -200 0
-200 -200 -200 0
-200 -200 -200 0
-200 -200 -200 0
-200 -200 -200 0
-200 -200 -200 0
-200 -200 -200 0
-200 -200 -200 0
-200 -200 -200 0
-200 -200 -200 0
-200 -200 -200 0
-200 -200 -200 0
-200 -200 -200 0
-200 -200 -200 0
-200 -200 -200 0
-200 -200 -200 0
-200 -200 -200 0
-200 -200 -200 0
-200 -200 -200 0
-200 -200 -200 0
-200 -200 -200 0
-200 -200 -200 0
-200 -200 -200 0
-200 -200 -200 0
-200 -200 -200 0
-200 -200 -200 0
-200 -200 -200 0
-200 -200 -200 0
-200 -200 -200 0
-200 -200 -200 0
-200 -200 -200 0
-200 -200 -200 0
-200 -200 -200 0
-200 -200 -200 0
-200 -200 -200 0
-200 -200 -200 0
-200 -200 -200 0
-200 -200 -200 0
-200 -200 -200 0
-200 -200 -200 0
-200 -200 -200 0
-200 -200 -200 0
-200 -200 -200 0
-200 -200 -200 0
-200 -200 -200 0
-200 -200 -200 0
-200 -200 -200 0
-200 -200 -200 0
-200 -200 -200 0
-200 -200 -200 0
-200 -200 -200 0
-200 -200 -200 0
-200 -200 -200 0
-200 -200 -200 0
-200 -200 -200 0
-200 -200 -200 0
-200 -200 -200 0
-200 -200 -200 0
-200 -200 -200 0
-200 -200 -200 0
-200 -200 -200 0
-200 -200 -200 0
-200 -200 -200 0
-200 -200 -200 0
-200 -200 -200 0
-200 -200 -200 0
-200 -200 -200 0
-200 -200 -200 0
-200 -200 -200 0
-200 -200 -200 0
-200 -200 -200 0
-200 -200 -200 0
-200 -200 -200 0
-200 -200 -200 0
-200 -200 -200 0
-200 -200 -200 0
-200 -200 -200 0
-200 -200 -200 0
-200 -200 -200 0
-200 -200 -200 0
-200 -200 -200 0
-200 -200 -200 0
-200 -200 -200 0
-200 -200 -200 0
-200 -200 -200 0
-200 -200 -200 0
-200 -200 -200 0
-200 -200 -200 0
-200 -200 -200 0
-200 -200 -200 0
-200 -200 -200 0
-200 -200 -200 0
-200 -200 -200 0
-200 -200 -200 0
-200 -200 -200 0
-200 -200 -200 0
-200 -200 -200 0
-200 -200 -200 0
-200 -200 -200 0
-200 -200 -200 0
-200 -200 -200 0
-200 -200 -200 0
-200 -200 -200 0
-200 -200 -200 0
-200 -200 -200 0
-200 -200 -200 0
-200 -200 -200 0
-200 -200 -200 0
-200 -200 -200 0
-200 -200 -200 0
-200 -200 -200 0
-200 -200 -200 0
-200 -200 -200 0
-200 -200 -200 0
-200 -200 -200 0
-200 -200 -200 0
-200 -200 -200 0
-200 -200 -200 0
-200 -200 -200 0
-200 -200 -200 0
-200 -200 -200 0
-200 -200 -200 0
-200 -200 -200 0
-200 -200 -200 0
-200 -200 -200 0
-200 -200 -200 0
-200 -200 -200 0
-200 -200 -200 0
-200 -200 -200 0
-200 -200 -200 0
-200 -200 -200 0
-200 -200 -200 0
-200 -200 -200 0
-200 -200 -200 0
-200 -200 -200 0
-200 -200 -200 0
-200 -200 -200 0
-200 -200 -200 0
-200 -200 -200 0
-200 -200 -200 0
-200 -200 -200 0
-200 -200 -200 0
-200 -200 -200 0
-200 -200 -200 0
-200 -200 -200 0
-200 -200 -200 0
-200 -200 -200 0
-200 -200 -200 0
-200 -200 -200 0
-200 -200 -200 0
-200 -200 -200 0
-200 -200 -200 0
-200 -200 -200 0
-200 -200 -200 0
-200 -200 -200 0
-200 -200 -200 0
-200 -200 -200 0
-200 -200 -200 0
-200 -200 -200 0
-200 -200 -200 0
-200 -200 -200 0
-200 -200 -200 0
-200 -200 -200 0
-200 -200 -200 0
-200 -200 -200 0
-200 -200 -200 0
-200 -200 -200 0
-200 -200 -200 0
-200 -200 -200 0
-200 -200 -200 0
-200 -200 -200 0
-200 -200 -200 0
-200 -200 -200 0
-200 -200 -200 0
-200 -200 -200 0
-200 -200 -200 0
-200 -200 -200 0
-200 -200 -200 0
-200 -200 -200 0
-200 -200 -200 0
-200 -200 -200 0
-200 -200 -200 0
-200 -200 -200 0
-200 -200 -200 0
-200 -200 -200 0
-200 -200 -200 0
-200 -200 -200 0
-200 -200 -200 0
-200 -200 -200 0
-200 -200 -200 0
-200 -200 -200 0
-200 -200 -200 0
-200 -200 -200 0
-200 -200 -200 0
-200 -200 -200 0
-200 -200 -200 0
-200 -200 -200 0
-200 -200 -200 0
-200 -200 -200 0
-200 -200 -200 0
-200 -200 -200 0
-200 -200 -200 0
-200 -200 -200 0
-200 -200 -200 0
-200 -200 -200 0
-200 -200 -200 0
-200 -200 -200 0
-200 -200 -200 0
-200 -200 -200 0
-200 -200 -200 0
-200 -200 -200 0
-200 -200 -200 0
-200 -200 -200 0
-200 -200 -200 0
-200 -200 -200 0
-200 -200 -200 0
-200 -200 -200 0
-200 -200 -200 0
-200 -200 -200 0
-200 -200 -200 0
-200 -200 -200 0
-200 -200 -200 0
-200 -200 -200 0
-200 -200 -200 0
-200 -200 -200 0
-200 -200 -200 0
-200 -200 -200 0
-200 -200 -200 0
-200 -200 -200 0
-200 -200 -200 0
-200 -200 -200 0
-200 -200 -200 0
-200 -200 -200 0
-200 -200 -200 0
-200 -200 -200 0
-200 -200 -200 0
-200 -200 -200 0
-200 -200 -200 0
-200 -200 -200 0
-200 -200 -200 0
-200 -200 -200 0
-200 -200 -200 0
-200 -200 -200 0
-200 -200 -200 0
-200 -200 -200 0
-200 -200 -200 0
-200 -200 -200 0
-200 -200 -200 0
-200 -200 -200 0
-200 -200 -200 0
-200 -200 -200 0
-200 -200 -200 0
-200 -200 -200 0
-200 -200 -200 0
-200 -200 -200 0
-200 -200 -200 0
-200 -200 -200 0
-200 -200 -200 0
-200 -200 -200 0
-200 -200 -200 0
-200 -200 -200 0
-200 -200 -200 0
-200 -200 -200 0
-200 -200 -200 0
-200 -200 -200 0
-200 -200 -200 0
-200 -200 -200 0
-200 -200 -200 0
-200 -200 -200 0
-200 -200 -200 0
-200 -200 -200 0
-200 -200 -200 0
-200 -200 -200 0
-200 -200 -200 0
-200 -200 -200 0
-200 -200 -200 0
-200 -200 -200 0
-200 -200 -200 0
-200 -200 -200 0
-200 -200 -200 0
-200 -200 -200 0
-200 -200 -200 0
-200 -200 -200 0
-200 -200 -200 0
-200 -200 -200 0
-200 -200 -200 0
-200 -200 -200 0
-200 -200 -200 0
-200 -200 -200 0
-200 -200 -200 0
-200 -200 -200 0
-200 -200 -200 0
-200 -200 -200 0
-200 -200 -200 0
-200 -200 -200 0
-200 -200 -200 0
-200 -200 -200 0
-200 -200 -200 0
-200 -200 -200 0
-200 -200 -200 0
-200 -200 -200 0
-200 -200 -200 0
-200 -200 -200 0
-200 -200 -200 0
-200 -200 -200 0
-200 -200 -200 0
-200 -200 -200 0
-200 -200 -200 0
-200 -200 -200 0
-200 -200 -200 0
-200 -200 -200 0
-200 -200 -200 0
-200 -200 -200 0
-200 -200 -200 0
-200 -200 -200 0
-200 -200 -200 0
-200 -200 -200 0
-200 -200 -200 0
-200 -200 -200 0
-200 -200 -200 0
-200 -200 -200 0
-200 -200 -200 0
-200 -200 -200 0
-200 -200 -200 0
-200 -200 -200 0
-200 -200 -200 0
-200 -200 -200 0
-200 -200 -200 0
-200 -200 -200 0
-200 -200 -200 0
-200 -200 -200 0
-200 -200 -200 0
-200 -200 -200 0
-200 -200 -200 0
-200 -200 -200 0
-200 -200 -200 0
-200 -200 -200 0
-200 -200 -200 0
-200 -200 -200 0
-200 -200 -200 0
-200 -200 -200 0
-200 -200 -200 0
-200 -200 -200 0
-200 -200 -200 0
-200 -200 -200 0
-200 -200 -200 0
-200 -200 -200 0
-200 -200 -200 0
-200 -200 -200 0
-200 -200 -200 0
-200 -200 -200 0
-200 -200 -200 0
-200 -200 -200 0
-200 -200 -200 0
-200 -200 -200 0
-200 -200 -200 0
-200 -200 -200 0
-200 -200 -200 0
-200 -200 -200 0
-200 -200 -200 0
-200 -200 -200 0
-200 -200 -200 0
-200 -200 -200 0
-200 -200 -200 0
-200 -200 -200 0
-200 -200 -200 0
-200 -200 -200 0
-200 -200 -200 0
-200 -200 -200 0
-200 -200 -200 0
-200 -200 -200 0
-200 -200 -200 0
-200 -200 -200 0
-200 -200 -200 0
-200 -200 -200 0
-200 -200 -200 0
-200 -200 -200 0
-200 -200 -200 0
-200 -200 -200 0
-200 -200 -200 0
-200 -200 -200 0
-200 -200 -200 0
-200 -200 -200 0
-200 -200 -200 0
-200 -200 -200 0
-200 -200 -200 0
-200 -200 -200 0
-200 -200 -200 0
-200 -200 -200 0
-200 -200 -200 0
-200 -200 -200 0
-200 -200 -200 0
-200 -200 -200 0
-200 -200 -200 0
-200 -200 -200 0
-200 -200 -200 0
-200 -200 -200 0
-200 -200 -200 0
-200 -200 -200 0
-200 -200 -200 0
-200 -200 -200 0
-200 -200 -200 0
-200 -200 -200 0
-200 -200 -200 0
-200 -200 -200 0
-200 -200 -200 0
-200 -200 -200 0
-200 -200 -200 0
-200 -200 -200 0
-200 -200 -200 0
-200 -200 -200 0
-200 -200 -200 0
-200 -200 -200 0
-200 -200 -200 0
-200 -200 -200 0
-200 -200 -200 0
-200 -200 -200 0
-200 -200 -200 0
-200 -200 -200 0
-200 -200 -200 0
-200 -200 -200 0
-200 -200 -200 0
-200 -200 -200 0
-200 -200 -200 0
-200 -200 -200 0
-200 -200 -200 0
-200 -200 -200 0
-200 -200 -200 0
-200 -200 -200 0
-200 -200 -200 0
-200 -200 -200 0
-200 -200 -200 0
-200 -200 -200 0
-200 -200 -200 0
-200 -200 -200 0
-200 -200 -200 0
-200 -200 -200 0
-200 -200 -200 0
-200 -200 -200 0
-200 -200 -200 0
-200 -200 -200 0
-200 -200 -200 0
-200 -200 -200 0
-200 -200 -200 0
-200 -200 -200 0
-200 -200 -200 0
-200 -200 -200 0
-200 -200 -200 0
-200 -200 -200 0
-200 -200 -200 0
-200 -200 -200 0
-200 -200 -200 0
-200 -200 -200 0
-200 -200 -200 0
-200 -200 -200 0
-200 -200 -200 0
-200 -200 -200 0
-200 -200 -200 0
-200 -200 -200 0
-200 -200 -200 0
-200 -200 -200 0
-200 -200 -200 0
-200 -200 -200 0
-200 -200 -200 0
-200 -200 -200 0
-200 -200 -200 0
-200 -200 -200 0
-200 -200 -200 0
-200 -200 -200 0
-200 -200 -200 0
-200 -200 -200 0
-200 -200 -200 0
-200 -200 -200 0
-200 -200 -200 0
-200 -200 -200 0
-200 -200 -200 0
-200 -200 -200 0
-200 -200 -200 0
-200 -200 -200 0
-200 -200 -200 0
-200 -200 -200 0
-200 -200 -200 0
-200 -200 -200 0
-200 -200 -200 0
-200 -200 -200 0
-200 -200 -200 0
-200 -200 -200 0
-200 -200 -200 0
-200 -200 -200 0
-200 -200 -200 0
-200 -200 -200 0
-200 -200 -200 0
-200 -200 -200 0
-200 -200 -200 0
-200 -200 -200 0
-200 -200 -200 0
-200 -200 -200 0
-200 -200 -200 0
-200 -200 -200 0
-200 -200 -200 0
-200 -200 -200 0
-200 -200 -200 0
-200 -200 -200 0
-200 -200 -200 0
-200 -200 -200 0
-200 -200 -200 0
-200 -200 -200 0
-200 -200 -200 0
-200 -200 -200 0
-200 -200 -200 0
-200 -200 -200 0
-200 -200 -200 0
-200 -200 -200 0
-200 -200 -200 0
-200 -200 -200 0
-200 -200 -200 0
-200 -200 -200 0
-200 -200 -200 0
-200 -200 -200 0
-200 -200 -200 0
-200 -200 -200 0
-200 -200 -200 0
-200 -200 -200 0
-200 -200 -200 0
-200 -200 -200 0
-200 -200 -200 0
-200 -200 -200 0
-200 -200 -200 0
-200 -200 -200 0
-200 -200 -200 0
-200 -200 -200 0
-200 -200 -200 0
-200 -200 -200 0
-200 -200 -200 0
-200 -200 -200 0
-200 -200 -200 0
-200 -200 -200 0
-200 -200 -200 0
-200 -200 -200 0
-200 -200 -200 0
-200 -200 -200 0
-200 -200 -200 0
-200 -200 -200 0
-200 -200 -200 0
-200 -200 -200 0
-200 -200 -200 0
-200 -200 -200 0
-200 -200 -200 0
-200 -200 -200 0
-200 -200 -200 0
-200 -200 -200 0
-200 -200 -200 0
-200 -200 -200 0
-200 -200 -200 0
-200 -200 -200 0
-200 -200 -200 0
-200 -200 -200 0
-200 -200 -200 0
-200 -200 -200 0
-200 -200 -200 0
-200 -200 -200 0
-200 -200 -200 0
-200 -200 -200 0
-200 -200 -200 0
-200 -200 -200 0
-200 -200 -200 0
-200 -200 -200 0
-200 -200 -200 0
-200 -200 -200 0
-200 -200 -200 0
-200 -200 -200 0
-200 -200 -200 0
-200 -200 -200 0
-200 -200 -200 0
-200 -200 -200 0
-200 -200 -200 0
-200 -200 -200 0
-200 -200 -200 0
-200 -200 -200 0
-200 -200 -200 0
-200 -200 -200 0
-200 -200 -200 0
-200 -200 -200 0
-200 -200 -200 0
-200 -200 -200 0
-200 -200 -200 0
-200 -200 -200 0
-200 -200 -200 0
-200 -200 -200 0
-200 -200 -200 0
-200 -200 -200 0
-200 -200 -200 0
-200 -200 -200 0
-200 -200 -200 0
-200 -200 -200 0
-200 -200 -200 0
-200 -200 -200 0
-200 -200 -200 0
-200 -200 -200 0
-200 -200 -200 0
-200 -200 -200 0
-200 -200 -200 0
-200 -200 -200 0
-200 -200 -200 0
-200 -200 -200 0
-200 -200 -200 0
-200 -200 -200 0
-200 -200 -200 0
-200 -200 -200 0
-200 -200 -200 0
-200 -200 -200 0
-200 -200 -200 0
-200 -200 -200 0
-200 -200 -200 0
-200 -200 -200 0
-200 -200 -200 0
-200 -200 -200 0
-200 -200 -200 0
-200 -200 -200 0
-200 -200 -200 0
-200 -200 -200 0
-200 -200 -200 0
-200 -200 -200 0
-200 -200 -200 0
-200 -200 -200 0
-200 -200 -200 0
-200 -200 -200 0
-200 -200 -200 0
-200 -200 -200 0
-200 -200 -200 0
-200 -200 -200 0
-200 -200 -200 0
-200 -200 -200 0
-200 -200 -200 0
-200 -200 -200 0
-200 -200 -200 0
-200 -200 -200 0
-200 -200 -200 0
-200 -200 -200 0
-200 -200 -200 0
-200 -200 -200 0
-200 -200 -200 0
-200 -200 -200 0
-200 -200 -200 0
-200 -200 -200 0
-200 -200 -200 0
-200 -200 -200 0
-200 -200 -200 0
-200 -200 -200 0
-200 -200 -200 0
-200 -200 -200 0
-200 -200 -200 0
-200 -200 -200 0
-200 -200 -200 0
-200 -200 -200 0
-200 -200 -200 0
-200 -200 -200 0
-200 -200 -200 0
-200 -200 -200 0
-200 -200 -200 0
-200 -200 -200 0
-200 -200 -200 0
-200 -200 -200 0
-200 -200 -200 0
-200 -200 -200 0
-200 -200 -200 0
-200 -200 -200 0
-200 -200 -200 0
-200 -200 -200 0
-200 -200 -200 0
-200 -200 -200 0
-200 -200 -200 0
-200 -200 -200 0
-200 -200 -200 0
-200 -200 -200 0
-200 -200 -200 0
-200 -200 -200 0
-200 -200 -200 0
-200 -200 -200 0
-200 -200 -200 0
-200 -200 -200 0
-200 -200 -200 0
-200 -200 -200 0
-200 -200 -200 0
-200 -200 -200 0
-200 -200 -200 0
-200 -200 -200 0
-200 -200 -200 0
-200 -200 -200 0
-200 -200 -200 0
-200 -200 -200 0
-200 -200 -200 0
-200 -200 -200 0
-200 -200 -200 0
-200 -200 -200 0
-200 -200 -200 0
-200 -200 -200 0
-200 -200 -200 0
-200 -200 -200 0
-200 -200 -200 0
-200 -200 -200 0
-200 -200 -200 0
-200 -200 -200 0
-200 -200 -200 0
-200 -200 -200 0
-200 -200 -200 0
-200 -200 -200 0
-200 -200 -200 0
-200 -200 -200 0
-200 -200 -200 0
-200 -200 -200 0
-200 -200 -200 0
-200 -200 -200 0
-200 -200 -200 0
-200 -200 -200 0
-200 -200 -200 0
-200 -200 -200 0
-200 -200 -200 0
-200 -200 -200 0
-200 -200 -200 0
-200 -200 -200 0
-200 -200 -200 0
-200 -200 -200 0
-200 -200 -200 0
-200 -200 -200 0
-200 -200 -200 0
-200 -200 -200 0
-200 -200 -200 0
-200 -200 -200 0
-200 -200 -200 0
-200 -200 -200 0
-200 -200 -200 0
-200 -200 -200 0
-200 -200 -200 0
-200 -200 -200 0
-200 -200 -200 0
-200 -200 -200 0
-200 -200 -200 0
-200 -200 -200 0
-200 -200 -200 0
-200 -200 -200 0
-200 -200 -200 0
-200 -200 -200 0
-200 -200 -200 0
-200 -200 -200 0
-200 -200 -200 0
-200 -200 -200 0
-200 -200 -200 0
-200 -200 -200 0
-200 -200 -200 0
-200 -200 -200 0
-200 -200 -200 0
-200 -200 -200 0
-200 -200 -200 0
-200 -200 -200 0
-200 -200 -200 0
-200 -200 -200 0
-200 -200 -200 0
-200 -200 -200 0
-200 -200 -200 0
-200 -200 -200 0
-200 -200 -200 0
-200 -200 -200 0
-200 -200 -200 0
-200 -200 -200 0
-200 -200 -200 0
-200 -200 -200 0
-200 -200 -200 0
-200 -200 -200 0
-200 -200 -200 0
-200 -200 -200 0
-200 -200 -200 0
-200 -200 -200 0
-200 -200 -200 0
-200 -200 -200 0
-200 -200 -200 0
-200 -200 -200 0
-200 -200 -200 0
-200 -200 -200 0
-200 -200 -200 0
-200 -200 -200 0
-200 -200 -200 0
-200 -200 -200 0
-200 -200 -200 0
-200 -200 -200 0
-200 -200 -200 0
-200 -200 -200 0
-200 -200 -200 0
-200 -200 -200 0
-200 -200 -200 0
-200 -200 -200 0
-200 -200 -200 0
-200 -200 -200 0
-200 -200 -200 0
-200 -200 -200 0
-200 -200 -200 0
-200 -200 -200 0
-200 -200 -200 0
-200 -200 -200 0
-200 -200 -200 0
-200 -200 -200 0
-200 -200 -200 0
-200 -200 -200 0
-200 -200 -200 0
-200 -200 -200 0
-200 -200 -200 0
-200 -200 -200 0
-200 -200 -200 0
-200 -200 -200 0
-200 -200 -200 0
-200 -200 -200 0
-200 -200 -200 0
-200 -200 -200 0
-200 -200 -200 0
-200 -200 -200 0
-200 -200 -200 0
-200 -200 -200 0
-200 -200 -200 0
-200 -200 -200 0
-200 -200 -200 0
-200 -200 -200 0
-200 -200 -200 0
-200 -200 -200 0
-200 -200 -200 0
-200 -200 -200 0
-200 -200 -200 0
-200 -200 -200 0
-200 -200 -200 0
-200 -200 -200 0
-200 -200 -200 0
-200 -200 -200 0
-200 -200 -200 0
-200 -200 -200 0
-200 -200 -200 0
-200 -200 -200 0
-200 -200 -200 0
-200 -200 -200 0
-200 -200 -200 0
-200 -200 -200 0
-200 -200 -200 0
-200 -200 -200 0
-200 -200 -200 0
-200 -200 -200 0
-200 -200 -200 0
-200 -200 -200 0
-200 -200 -200 0
-200 -200 -200 0
-200 -200 -200 0
-200 -200 -200 0
-200 -200 -200 0
-200 -200 -200 0
-200 -200 -200 0
-200 -200 -200 0
-200 -200 -200 0
-200 -200 -200 0
-200 -200 -200 0
-200 -200 -200 0
-200 -200 -200 0
-200 -200 -200 0
-200 -200 -200 0
-200 -200 -200 0
-200 -200 -200 0
-200 -200 -200 0
-200 -200 -200 0
-200 -200 -200 0
-200 -200 -200 0
-200 -200 -200 0
-200 -200 -200 0
-200 -200 -200 0
-200 -200 -200 0
-200 -200 -200 0
-200 -200 -200 0
-200 -200 -200 0
-200 -200 -200 0
-200 -200 -200 0
-200 -200 -200 0
-200 -200 -200 0
-200 -200 -200 0
-200 -200 -200 0
-200 -200 -200 0
-200 -200 -200 0
-200 -200 -200 0
-200 -200 -200 0
-200 -200 -200 0
-200 -200 -200 0
-200 -200 -200 0
-200 -200 -200 0
-200 -200 -200 0
-200 -200 -200 0
-200 -200 -200 0
-200 -200 -200 0
-200 -200 -200 0
-200 -200 -200 0
-200 -200 -200 0
-200 -200 -200 0
-200 -200 -200 0
-200 -200 -200 0
-200 -200 -200 0
-200 -200 -200 0
-200 -200 -200 0
-200 -200 -200 0
-200 -200 -200 0
-200 -200 -200 0
-200 -200 -200 0
-200 -200 -200 0
-200 -200 -200 0
-200 -200 -200 0
-200 -200 -200 0
-200 -200 -200 0
-200 -200 -200 0
-200 -200 -200 0
-200 -200 -200 0
-200 -200 -200 0
-200 -200 -200 0
-200 -200 -200 0
-200 -200 -200 0
-200 -200 -200 0
-200 -200 -200 0
-200 -200 -200 0
-200 -200 -200 0
-200 -200 -200 0
-200 -200 -200 0
-200 -200 -200 0
-200 -200 -200 0
-200 -200 -200 0
-200 -200 -200 0
-200 -200 -200 0
-200 -200 -200 0
-200 -200 -200 0
-200 -200 -200 0
-200 -200 -200 0
-200 -200 -200 0
-200 -200 -200 0
-200 -200 -200 0
-200 -200 -200 0
-200 -200 -200 0
-200 -200 -200 0
-200 -200 -200 0
-200 -200 -200 0
-200 -200 -200 0
-200 -200 -200 0
-200 -200 -200 0
-200 -200 -200 0
-200 -200 -200 0
-200 -200 -200 0
-200 -200 -200 0
-200 -200 -200 0
-200 -200 -200 0
-200 -200 -200 0
-200 -200 -200 0
-200 -200 -200 0
-200 -200 -200 0
-200 -200 -200 0
-200 -200 -200 0
-200 -200 -200 0
-200 -200 -200 0
-200 -200 -200 0
-200 -200 -200 0
-200 -200 -200 0
-200 -200 -200 0
-200 -200 -200 0
-200 -200 -200 0
-200 -200 -200 0
-200 -200 -200 0
-200 -200 -200 0
-200 -200 -200 0
-200 -200 -200 0
-200 -200 -200 0
-200 -200 -200 0
-200 -200 -200 0
-200 -200 -200 0
-200 -200 -200 0
-200 -200 -200 0
-200 -200 -200 0
-200 -200 -200 0
-200 -200 -200 0
-200 -200 -200 0
-200 -200 -200 0
-200 -200 -200 0
-200 -200 -200 0
-200 -200 -200 0
-200 -200 -200 0
-200 -200 -200 0
-200 -200 -200 0
