c s2_mpfx_log_PSO
p cnf 200 831
134 184 -56 0
73 -87 -99 0
27 200 170 0
14 -71 -51 0
195 157 149 0
89 64 -28 0
134 -153 -52 0
137 -15 -77 0
81 62 -122 0
154 184 151 0
-191 -169 -76 0
133 149 161 0
166 -36 -88 0
10 -101 -50 0
89 -133 -140 0
19 -58 -13 0
157 -103 -41 0
200 -127 -107 0
78 84 96 0
54 167 51 0
158 38 -133 0
184 26 -194 0
77 191 -149 0
180 47 -194 0
63 47 -161 0
169 -79 -193 0
50 189 -54 0
172 -153 -153 0
109 192 -99 0
42 161 -127 0
182 -106 -42 0
166 -183 -32 0
130 120 87 0
24 -162 -167 0
197 -34 -115 0
28 79 -137 0
190 96 -90 0
-194 -7 -65 0
105 86 -66 0
-72 -175 -184 0
16 9 -102 0
-90 -11 -175 0
98 174 -123 0
148 180 -196 0
149 163 -118 0
50 156 -144 0
32 123 -12 0
118 135 -168 0
155 180 -162 0
96 100 11 0
98 78 -11 0
105 195 -32 0
64 -142 -187 0
-53 -140 -161 0
188 -34 -158 0
115 181 -8 0
168 151 31 0
-151 -56 -140 0
83 -1 -189 0
23 196 -10 0
196 -35 -3 0
61 76 -46 0
136 -191 -123 0
4 -53 -196 0
163 -150 -138 0
79 146 76 0
12 -151 -169 0
128 132 -60 0
156 -119 -27 0
150 -88 -5 0
90 71 -182 0
189 -55 -73 0
155 -108 -148 0
-33 -93 -152 0
145 89 165 0
131 140 -184 0
199 151 -133 0
68 -82 -138 0
105 13 -11 0
151 -32 -151 0
75 -26 -111 0
28 195 14 0
141 106 -51 0
192 165 -197 0
7 111 -26 0
-148 -118 -14 0
-154 -60 -108 0
24 160 -193 0
166 -198 -104 0
166 -64 -185 0
-73 -186 -138 0
7 -148 -135 0
74 192 15 0
105 183 -49 0
104 -196 -170 0
18 45 -58 0
108 -157 -130 0
150 7 -72 0
-188 -141 -22 0
132 -64 -101 0
24 -156 -9 0
118 -79 -1 0
172 -199 -26 0
25 31 -109 0
78 37 28 0
92 -99 -13 0
-22 -111 -78 0
18 -5 -32 0
149 -21 -182 0
182 -152 -200 0
177 25 -100 0
21 54 -156 0
23 -175 -23 0
118 165 -145 0
125 -148 -60 0
-150 -38 -200 0
108 151 -80 0
18 50 102 0
199 6 -176 0
-155 -60 -69 0
106 176 -134 0
78 200 -89 0
61 148 -110 0
23 -151 -56 0
119 19 -118 0
21 -174 -154 0
40 -192 -45 0
117 -64 -57 0
114 -67 -168 0
109 147 -74 0
191 195 -12 0
137 -77 -57 0
139 61 -184 0
74 176 -97 0
104 169 -175 0
45 47 -144 0
32 178 131 0
97 41 -46 0
122 19 -26 0
157 -121 -193 0
103 -160 -87 0
87 -136 -61 0
67 -116 -45 0
77 113 -38 0
-139 -102 -171 0
6 64 -15 0
119 95 -125 0
173 55 97 0
54 -109 -135 0
9 141 56 0
179 8 -101 0
32 125 -32 0
79 162 -141 0
188 180 -6 0
-135 -104 -160 0
86 13 -146 0
3 -21 -42 0
104 100 -59 0
129 24 -40 0
55 -17 -90 0
172 112 23 0
3 111 90 0
177 26 -190 0
28 179 -122 0
172 56 -75 0
5 55 -94 0
90 158 -114 0
46 8 -159 0
36 -18 -98 0
199 150 64 0
35 111 -98 0
16 152 -94 0
161 -4 -56 0
73 -11 -68 0
33 66 15 0
146 -120 -177 0
114 174 -12 0
148 198 -171 0
24 60 -104 0
56 -126 -116 0
-116 -100 -165 0
5 -174 -63 0
52 35 -94 0
94 -181 -143 0
122 59 -57 0
16 33 -120 0
166 34 -141 0
140 194 106 0
74 37 -90 0
118 154 96 0
133 145 -106 0
81 80 -56 0
99 -65 -1 0
79 12 -30 0
140 66 -99 0
179 -69 -126 0
141 184 -170 0
50 -174 -25 0
127 -72 -168 0
41 46 -157 0
15 24 -10 0
37 129 -149 0
123 -185 -162 0
97 70 -47 0
4 -76 -169 0
-83 -89 -161 0
108 57 -133 0
136 107 -180 0
82 -122 -89 0
93 -40 -130 0
2 117 155 0
-163 -135 -77 0
169 83 -7 0
194 -136 -91 0
57 87 -159 0
140 -17 -152 0
32 147 -49 0
18 130 49 0
93 144 104 0
47 69 -4 0
30 -132 -197 0
67 -43 -6 0
27 -20 -45 0
59 -79 -115 0
-114 -37 -116 0
137 105 -142 0
145 -120 -12 0
126 97 -142 0
171 38 -131 0
180 65 -72 0
81 167 -138 0
191 -154 -89 0
1 -166 -54 0
198 184 -50 0
36 -132 -75 0
18 -141 -10 0
168 66 -172 0
73 11 -104 0
138 -61 -34 0
67 -73 -1 0
174 -102 -136 0
116 186 -57 0
174 -57 -34 0
185 28 -196 0
178 68 66 0
38 -127 -183 0
70 -60 -38 0
-1 -139 -187 0
134 -176 -159 0
40 173 82 0
157 -197 -107 0
4 -79 -11 0
101 34 137 0
183 -123 -130 0
-74 -103 -142 0
19 158 -77 0
107 -183 -192 0
30 163 -44 0
99 20 -124 0
106 174 154 0
140 -141 -34 0
178 69 135 0
147 69 -178 0
160 -170 -61 0
156 94 -49 0
49 134 160 0
96 166 -153 0
140 180 -183 0
166 99 -123 0
188 121 -125 0
121 107 116 0
-47 -170 -37 0
113 111 -195 0
130 -177 -57 0
103 75 113 0
108 102 98 0
120 -109 -41 0
20 -168 -21 0
170 -8 -28 0
189 -53 -86 0
135 110 -77 0
11 29 -90 0
89 -65 -100 0
143 -185 -158 0
148 73 -64 0
143 -143 -26 0
95 -35 -133 0
142 -142 -26 0
56 -80 -153 0
-111 -43 -183 0
81 -103 -18 0
-97 -74 -171 0
101 -157 -161 0
70 -142 -192 0
48 63 -55 0
40 137 -171 0
78 -185 -20 0
146 85 -187 0
74 36 -81 0
129 -197 -43 0
43 -78 -28 0
76 14 45 0
140 76 -124 0
34 156 -173 0
7 14 -39 0
195 117 113 0
54 -65 -160 0
54 119 -116 0
122 15 -40 0
12 -70 -29 0
64 77 127 0
184 -24 -10 0
124 -142 -15 0
9 -113 -130 0
6 -163 -150 0
93 -139 -188 0
131 -59 -149 0
195 173 -170 0
-188 -69 -134 0
198 -175 -30 0
-88 -24 -5 0
33 -174 -136 0
87 -76 -18 0
54 -171 -53 0
155 199 15 0
27 122 -115 0
191 -143 -65 0
2 -40 -55 0
2 -100 -82 0
-62 -65 -144 0
-146 -53 -71 0
17 104 187 0
190 38 -50 0
117 146 -53 0
81 20 -27 0
175 -55 -18 0
13 137 80 0
125 7 -137 0
124 -107 -141 0
157 94 -115 0
51 140 -62 0
54 80 -196 0
71 8 -184 0
-157 -42 -14 0
27 77 -19 0
130 -66 -54 0
-41 -99 -95 0
104 157 -145 0
12 91 87 0
72 82 -107 0
-73 -123 -125 0
107 174 -115 0
25 -150 -62 0
25 -172 -40 0
168 163 -62 0
30 142 48 0
40 -24 -90 0
150 -25 -116 0
-133 -170 -185 0
20 -136 -75 0
143 21 -162 0
2 -138 -49 0
170 19 -34 0
12 -14 -81 0
130 12 -190 0
-45 -49 -47 0
181 25 -135 0
200 -64 -166 0
13 -196 -76 0
63 69 -168 0
7 -107 -39 0
134 59 119 0
16 28 -38 0
111 -22 -91 0
153 32 -159 0
187 34 -38 0
167 -31 -196 0
100 140 145 0
96 -198 -108 0
149 198 -195 0
101 102 -1 0
158 96 -24 0
93 110 -189 0
79 55 -16 0
120 49 -150 0
147 -180 -43 0
117 -137 -120 0
139 75 -167 0
116 -62 -15 0
131 18 -89 0
159 21 192 0
163 -184 -90 0
119 -91 -181 0
136 -148 -26 0
76 166 -142 0
172 -180 -96 0
130 29 -53 0
182 85 -32 0
91 92 -29 0
33 86 -145 0
59 18 -149 0
62 -193 -83 0
2 145 -116 0
158 -190 -178 0
176 102 -130 0
98 71 -24 0
109 -104 -107 0
74 142 131 0
73 165 22 0
183 -112 -107 0
24 -53 -23 0
25 -44 -133 0
65 -110 -7 0
-101 -129 -112 0
42 -187 -136 0
143 75 -76 0
183 -110 -103 0
51 70 13 0
92 -39 -113 0
-81 -30 -16 0
111 140 -126 0
-80 -78 -36 0
169 -175 -27 0
109 -49 -58 0
191 46 -109 0
41 137 -163 0
-36 -177 -62 0
11 -191 -63 0
157 -131 -109 0
128 177 108 0
-99 -99 -161 0
124 1 12 0
65 138 144 0
38 -50 -134 0
-121 -102 -68 0
22 65 163 0
80 -184 -32 0
133 135 -50 0
9 37 117 0
104 -92 -139 0
24 162 58 0
127 -116 -161 0
48 7 -153 0
-180 -119 -66 0
1 -58 -113 0
13 81 -80 0
89 -3 -119 0
115 8 -143 0
82 -143 -179 0
197 46 174 0
-188 -106 -68 0
88 199 -119 0
107 60 -160 0
6 -121 -183 0
47 191 -167 0
164 47 -83 0
81 60 -170 0
82 150 -53 0
94 47 187 0
9 192 -142 0
100 125 -156 0
-134 -164 -173 0
34 -149 -4 0
52 -77 -200 0
121 112 -126 0
150 176 -80 0
47 18 129 0
67 104 175 0
122 -174 -141 0
178 -115 -73 0
174 -94 -2 0
129 85 172 0
-34 -102 -151 0
30 19 159 0
-38 -65 -187 0
-183 -58 -142 0
115 -162 -136 0
147 -15 -2 0
80 -79 -110 0
65 2 31 0
186 -177 -132 0
146 144 143 0
70 -74 -16 0
82 139 -154 0
47 51 -188 0
50 -48 -115 0
113 -102 -128 0
-191 -198 -181 0
93 137 -34 0
-49 -142 -119 0
161 44 -20 0
126 -107 -170 0
117 15 -68 0
90 -24 -198 0
179 -159 -170 0
84 -49 -146 0
29 30 -95 0
194 -75 -35 0
39 180 -114 0
166 72 -77 0
95 66 109 0
170 -64 -18 0
141 -89 -159 0
63 38 -136 0
161 -6 -27 0
137 164 167 0
185 -146 -97 0
185 103 30 0
121 -46 -5 0
110 116 -73 0
30 -83 -196 0
88 27 -146 0
105 114 -66 0
141 -1 -114 0
194 -105 -183 0
150 41 -144 0
24 -29 -110 0
71 -61 -199 0
-22 -83 -115 0
160 -8 -25 0
22 -155 -189 0
72 -35 -117 0
197 74 183 0
142 152 -187 0
94 4 168 0
74 46 -118 0
94 -5 -103 0
-113 -71 -37 0
184 34 -13 0
168 151 26 0
35 162 77 0
-196 -194 -128 0
59 125 147 0
114 55 -172 0
48 170 -84 0
37 117 160 0
34 5 178 0
145 138 130 0
-66 -59 -93 0
117 73 -165 0
-94 -10 -59 0
-180 -180 -155 0
164 56 -63 0
182 51 78 0
13 -197 -84 0
108 -149 -161 0
155 179 -60 0
-155 -47 -108 0
3 -120 -113 0
4 67 -26 0
145 -155 -66 0
24 26 -123 0
5 118 -78 0
53 47 -134 0
66 -165 -98 0
129 187 -30 0
-80 -28 -118 0
152 53 -147 0
47 124 -33 0
178 57 -198 0
175 56 -97 0
35 136 -192 0
-103 -119 -17 0
107 106 187 0
12 155 -177 0
11 95 -96 0
49 189 60 0
-129 -51 -139 0
52 24 185 0
160 -93 -152 0
122 -159 -166 0
164 -66 -19 0
91 112 -137 0
-50 -199 -154 0
-2 -172 -8 0
6 -36 -41 0
57 -151 -168 0
187 138 -190 0
-176 -86 -126 0
10 -112 -114 0
20 31 -114 0
97 -130 -115 0
149 8 48 0
67 118 177 0
35 -67 -104 0
30 159 94 0
170 8 -72 0
71 131 -128 0
17 -187 -95 0
121 174 94 0
103 199 -13 0
-72 -86 -176 0
27 164 43 0
132 -15 -141 0
45 -76 -154 0
-189 -21 -199 0
45 178 197 0
174 60 -47 0
-55 -129 -118 0
79 -122 -25 0
-159 -18 -66 0
24 61 156 0
75 97 -35 0
135 116 -26 0
172 17 149 0
151 -116 -189 0
101 -182 -190 0
85 -47 -89 0
118 -159 -134 0
98 -137 -33 0
174 -187 -16 0
175 61 55 0
83 -191 -53 0
163 -116 -108 0
43 -62 -22 0
41 -172 -189 0
144 152 148 0
54 94 145 0
68 157 -145 0
118 89 161 0
47 98 -98 0
19 -62 -121 0
191 52 -197 0
119 30 -108 0
83 -105 -148 0
59 168 -188 0
103 -160 -4 0
-108 -197 -56 0
169 3 -181 0
-129 -153 -20 0
84 40 -96 0
99 -177 -138 0
140 -132 -83 0
51 -54 -61 0
49 187 -72 0
171 119 -169 0
96 -98 -158 0
-78 -156 -10 0
29 34 88 0
8 157 176 0
-120 -158 -117 0
-31 -78 -102 0
-76 -121 -128 0
170 58 -114 0
8 52 119 0
-153 -113 -109 0
1 -49 -181 0
79 92 -88 0
156 54 -100 0
43 81 -8 0
61 -110 -173 0
129 -57 -23 0
-35 -112 -12 0
74 -20 -151 0
-106 -19 -31 0
172 -161 -195 0
-120 -102 -124 0
68 -43 -130 0
84 82 -26 0
67 59 -104 0
77 -82 -167 0
20 -25 -152 0
133 112 -173 0
178 -1 -64 0
106 27 -49 0
177 -19 -162 0
12 179 -84 0
92 46 -130 0
12 87 -142 0
142 -100 -156 0
91 -146 -155 0
-119 -66 -187 0
14 -86 -13 0
133 85 -37 0
64 184 -159 0
79 197 -136 0
91 8 97 0
115 137 -177 0
111 -88 -145 0
103 -25 -8 0
193 -124 -58 0
105 -13 -143 0
200 147 90 0
199 -185 -86 0
-29 -9 -84 0
-19 -165 -76 0
97 -102 -150 0
36 35 -176 0
146 198 -44 0
46 78 -56 0
145 -83 -200 0
39 -15 -75 0
176 -125 -17 0
67 -36 -26 0
88 153 -125 0
-183 -148 -62 0
105 68 -196 0
184 -158 -140 0
145 -8 -182 0
167 106 70 0
-27 -128 -8 0
47 98 -128 0
141 96 -58 0
137 -20 -63 0
-42 -12 -43 0
54 -168 -48 0
181 28 -13 0
75 145 188 0
129 -8 -182 0
27 84 -104 0
7 -185 -117 0
55 55 -8 0
174 82 -200 0
150 77 -68 0
-110 -144 -122 0
-101 -79 -138 0
-156 -95 -164 0
147 92 -106 0
74 57 -93 0
39 199 89 0
200 25 -131 0
190 41 -168 0
123 75 -14 0
15 -135 -124 0
79 29 -23 0
9 -132 -196 0
146 -188 -150 0
89 -155 -117 0
99 126 -182 0
9 -22 -37 0
18 -44 -62 0
30 -13 -56 0
22 2 -123 0
16 -76 -49 0
57 147 -92 0
-163 -117 -174 0
13 136 44 0
113 -99 -109 0
85 61 72 0
162 126 -146 0
13 -131 -84 0
-199 -58 -59 0
118 85 -87 0
136 -150 -165 0
140 -174 -127 0
73 -61 -177 0
132 15 -2 0
192 92 -56 0
166 70 -20 0
164 81 -13 0
137 -35 -44 0
90 88 -132 0
-86 -107 -153 0
79 -34 -194 0
46 -148 -127 0
63 -6 -24 0
56 190 -128 0
62 79 -47 0
147 126 99 0
20 -116 -152 0
42 -40 -192 0
44 8 -98 0
29 130 -19 0
50 -29 -6 0
101 187 -111 0
91 -157 -192 0
147 98 -135 0
31 -25 -130 0
114 -151 -90 0
-172 -104 -38 0
68 -198 -15 0
-46 -49 -95 0
76 128 -115 0
198 -67 -142 0
16 122 -79 0
-153 -9 -74 0
146 58 171 0
83 52 131 0
147 171 -81 0
125 15 48 0
126 -197 -74 0
172 -159 -163 0
189 53 -124 0
116 68 89 0
132 15 -35 0
60 59 200 0
84 10 -105 0
195 141 -153 0
43 162 -52 0
-152 -55 -70 0
59 66 -13 0
36 131 -122 0
-198 -140 -26 0
27 9 -129 0
147 141 -143 0
24 -112 -108 0
73 -167 -158 0
189 156 -104 0
54 2 -148 0
143 124 -106 0
177 62 194 0
81 5 -84 0
99 -200 -162 0
185 110 -192 0
146 138 -154 0
109 -68 -170 0
29 -107 -136 0
161 112 -188 0
158 160 -73 0
140 170 132 0
101 11 63 0
63 124 -134 0
72 -59 -193 0
27 170 -200 0
-43 -88 -51 0
101 94 -174 0
32 -97 -88 0
183 160 87 0
9 57 -14 0
127 -142 -49 0
178 -178 -31 0
20 -62 -194 0
179 -148 -188 0
93 -192 -109 0
178 -14 -150 0
37 48 155 0
60 136 -143 0
162 -184 -3 0
-58 -107 -170 0
181 129 -20 0
22 -96 -70 0
