c s2_mpfx_neg_TripleCMA
p cnf 200 788
177 -46 -100 0
123 -198 -118 0
83 96 -51 0
-146 -132 -131 0
179 35 -46 0
101 38 -193 0
30 147 -167 0
191 -117 -9 0
125 67 148 0
31 130 -181 0
66 77 36 0
95 -178 -32 0
19 140 -114 0
194 115 -31 0
79 111 -132 0
2 -63 -104 0
191 68 -157 0
62 -172 -121 0
36 142 142 0
175 133 -175 0
186 111 -173 0
68 -173 -46 0
80 -197 -146 0
42 -186 -131 0
29 120 -161 0
-117 -100 -171 0
196 188 35 0
-59 -137 -8 0
48 -11 -137 0
4 61 -45 0
100 89 175 0
-45 -15 -180 0
109 -168 -77 0
10 -106 -68 0
6 79 -40 0
155 134 -190 0
84 -1 -116 0
150 -36 -34 0
-98 -168 -21 0
169 -49 -15 0
25 140 -166 0
56 -124 -4 0
47 -193 -126 0
161 138 172 0
103 49 -105 0
2 112 -198 0
176 49 57 0
-179 -166 -37 0
189 187 -32 0
182 180 142 0
160 28 193 0
112 17 -5 0
76 -167 -104 0
168 110 16 0
-101 -193 -44 0
11 -164 -40 0
-30 -17 -35 0
34 -75 -16 0
146 -83 -107 0
20 -5 -161 0
180 -87 -14 0
11 -196 -61 0
176 -194 -124 0
100 -58 -67 0
105 -50 -28 0
67 -47 -152 0
139 59 -115 0
26 75 -69 0
22 176 -23 0
158 10 -187 0
188 47 -29 0
57 22 124 0
129 -43 -150 0
60 12 -171 0
49 111 15 0
30 136 -155 0
169 182 -53 0
180 103 -11 0
63 137 -175 0
61 -176 -151 0
10 131 -9 0
127 -47 -198 0
184 -19 -122 0
92 165 -5 0
184 -27 -13 0
168 -101 -17 0
16 -39 -59 0
140 115 -190 0
163 153 -123 0
73 -136 -45 0
172 23 -145 0
-189 -130 -180 0
116 171 -189 0
100 70 -148 0
70 31 -170 0
-117 -59 -166 0
136 -173 -178 0
191 102 68 0
140 2 -88 0
27 -55 -66 0
33 58 -73 0
177 142 -82 0
80 150 196 0
19 -10 -2 0
89 -81 -154 0
70 45 130 0
1 61 -61 0
111 -62 -157 0
67 28 -146 0
23 183 34 0
-3 -96 -110 0
125 190 -133 0
40 83 -14 0
154 -160 -90 0
92 134 -16 0
117 -72 -24 0
42 120 -108 0
116 59 -113 0
174 103 -141 0
87 32 -96 0
137 154 -29 0
68 88 61 0
-16 -177 -125 0
72 78 198 0
185 -6 -58 0
27 -2 -145 0
104 153 -77 0
-194 -63 -38 0
97 69 -71 0
14 -84 -43 0
35 63 -89 0
86 56 53 0
90 21 -27 0
190 105 -114 0
56 138 -11 0
147 -67 -75 0
55 -17 -199 0
42 13 -6 0
121 31 -149 0
72 155 -8 0
-144 -174 -174 0
180 -49 -151 0
-26 -27 -165 0
12 150 -62 0
133 -184 -173 0
155 90 -112 0
164 151 -7 0
66 -39 -14 0
115 -23 -158 0
80 156 -103 0
124 130 -67 0
191 -172 -103 0
27 106 79 0
112 140 -23 0
49 96 -52 0
130 108 -108 0
125 95 -138 0
96 -57 -61 0
84 92 71 0
49 -151 -165 0
-93 -35 -2 0
162 -123 -76 0
189 147 -22 0
64 49 -116 0
83 160 -60 0
137 20 -29 0
161 -181 -65 0
145 169 -142 0
143 113 -15 0
52 -103 -66 0
126 -191 -115 0
154 -128 -16 0
-145 -194 -79 0
-89 -113 -118 0
156 173 -102 0
66 -24 -177 0
28 178 -136 0
179 118 -52 0
168 177 122 0
32 39 173 0
15 171 177 0
-192 -105 -65 0
151 183 -31 0
146 -88 -43 0
-71 -46 -12 0
152 169 105 0
170 -135 -123 0
144 -160 -93 0
183 -120 -158 0
85 53 -39 0
-188 -2 -147 0
110 103 151 0
72 -181 -50 0
112 -33 -148 0
77 57 -153 0
196 180 150 0
78 -108 -94 0
172 -44 -147 0
158 78 112 0
40 38 -135 0
185 51 -66 0
55 -12 -89 0
52 -51 -149 0
-169 -118 -62 0
-1 -53 -14 0
102 -109 -28 0
148 -68 -35 0
-59 -31 -72 0
55 -82 -4 0
6 144 -34 0
126 -8 -155 0
56 -50 -146 0
189 178 -140 0
-30 -50 -100 0
44 -155 -12 0
-24 -175 -197 0
27 32 -139 0
166 2 -161 0
104 -92 -174 0
50 -86 -116 0
160 47 -131 0
44 -25 -6 0
42 18 -129 0
10 138 -118 0
161 138 138 0
-116 -28 -82 0
25 14 -126 0
36 132 -112 0
117 -25 -125 0
62 193 191 0
162 -26 -12 0
62 53 170 0
152 -111 -116 0
8 178 -120 0
-53 -181 -106 0
33 163 -50 0
180 -9 -2 0
24 -95 -187 0
-105 -71 -141 0
109 119 -155 0
-11 -71 -53 0
9 -157 -102 0
151 85 -64 0
96 132 -148 0
73 160 -70 0
11 -176 -54 0
173 161 155 0
86 -155 -66 0
-61 -101 -60 0
103 123 -111 0
77 134 -11 0
81 177 140 0
56 -72 -170 0
1 -138 -97 0
78 168 15 0
181 -17 -82 0
66 105 -148 0
11 -79 -99 0
-199 -43 -187 0
66 31 -77 0
137 -87 -137 0
147 101 -186 0
-52 -132 -97 0
114 103 -60 0
99 151 87 0
122 -18 -29 0
72 143 25 0
-124 -175 -176 0
54 71 -43 0
197 48 67 0
30 57 -94 0
100 -163 -171 0
73 28 -29 0
169 -59 -68 0
100 38 -58 0
157 -20 -184 0
-91 -115 -81 0
32 -197 -146 0
146 -115 -188 0
52 125 -5 0
60 12 -162 0
139 -100 -106 0
123 132 -96 0
70 136 106 0
37 -159 -149 0
5 98 -122 0
149 42 97 0
179 186 -150 0
183 124 -76 0
114 -187 -138 0
111 61 -171 0
22 139 -154 0
-75 -22 -49 0
58 -58 -24 0
112 77 -159 0
10 121 -6 0
95 21 -186 0
169 34 18 0
164 186 -106 0
68 -102 -160 0
42 -44 -96 0
-130 -2 -109 0
15 156 -49 0
168 71 -150 0
-5 -30 -95 0
133 81 -143 0
97 -21 -1 0
132 121 -61 0
34 -26 -143 0
183 -119 -111 0
22 79 -125 0
128 -47 -72 0
177 35 -191 0
107 185 -47 0
129 -96 -126 0
62 -106 -56 0
8 41 -145 0
153 120 -199 0
63 -152 -184 0
-128 -166 -112 0
-38 -80 -167 0
58 -81 -96 0
112 -4 -134 0
138 32 -168 0
52 -121 -153 0
17 -122 -179 0
18 150 -99 0
98 -76 -185 0
113 60 17 0
3 167 -39 0
116 164 4 0
105 160 -94 0
143 -200 -53 0
117 12 -70 0
11 66 -118 0
115 -148 -69 0
163 -165 -68 0
108 -68 -159 0
161 121 154 0
183 -33 -141 0
136 152 -48 0
109 43 60 0
108 67 -17 0
183 67 -85 0
94 72 -140 0
25 -21 -113 0
152 -30 -57 0
-170 -27 -182 0
27 89 -49 0
118 -198 -151 0
45 187 125 0
196 181 48 0
14 -3 -61 0
-90 -37 -167 0
161 -180 -109 0
138 -122 -45 0
88 35 -82 0
129 135 -76 0
138 -108 -126 0
81 50 -72 0
154 -72 -38 0
129 -167 -28 0
54 20 -137 0
5 189 34 0
156 11 -198 0
-84 -4 -178 0
106 108 102 0
160 58 -185 0
110 72 -92 0
102 45 128 0
44 -129 -130 0
117 149 -190 0
134 -95 -50 0
-48 -182 -77 0
-197 -88 -102 0
6 -57 -193 0
171 135 -152 0
129 38 -150 0
87 92 -69 0
41 157 -168 0
126 -46 -180 0
83 -16 -112 0
40 156 89 0
175 98 -13 0
151 -1 -38 0
104 70 -169 0
120 108 -135 0
-52 -197 -139 0
29 -190 -180 0
83 33 -151 0
118 -139 -118 0
123 192 123 0
103 196 -108 0
166 176 -104 0
66 129 128 0
31 -80 -45 0
14 115 -148 0
23 -40 -47 0
99 -89 -110 0
-126 -100 -123 0
200 -16 -177 0
36 -137 -24 0
19 -200 -25 0
175 -105 -198 0
37 -30 -136 0
86 184 -84 0
101 89 -168 0
143 134 -27 0
162 15 164 0
-82 -2 -81 0
96 -183 -124 0
88 167 -199 0
-6 -50 -35 0
184 161 -189 0
167 160 164 0
180 -123 -37 0
195 60 -158 0
150 -12 -173 0
195 86 -109 0
-158 -190 -94 0
38 -151 -82 0
142 187 -193 0
86 100 -196 0
13 -108 -122 0
-151 -122 -85 0
176 9 -100 0
167 197 7 0
179 177 -176 0
163 63 -74 0
153 33 -155 0
138 94 -95 0
-44 -71 -59 0
56 169 97 0
124 101 -57 0
24 -172 -118 0
92 93 -157 0
39 96 152 0
69 95 -12 0
-192 -92 -54 0
190 169 -140 0
23 -27 -46 0
36 7 164 0
82 -16 -55 0
-56 -170 -71 0
147 24 -140 0
122 144 106 0
137 -29 -76 0
187 101 -144 0
197 82 -121 0
-115 -40 -190 0
70 -98 -120 0
184 -1 -190 0
28 168 -69 0
78 -109 -142 0
64 9 73 0
148 151 140 0
61 -147 -49 0
36 -150 -54 0
127 160 -199 0
190 -46 -168 0
44 122 -41 0
134 -145 -89 0
89 84 -108 0
172 138 -93 0
182 31 19 0
33 194 127 0
41 -84 -11 0
19 107 -16 0
149 152 -38 0
79 191 -23 0
167 35 -197 0
110 148 -13 0
113 197 19 0
10 -86 -170 0
11 110 -3 0
83 163 -74 0
171 -15 -182 0
-23 -146 -171 0
45 -144 -196 0
-169 -62 -91 0
50 65 -26 0
111 90 -99 0
-5 -162 -114 0
94 -183 -72 0
-21 -152 -80 0
143 43 -133 0
98 58 -158 0
141 197 45 0
36 73 -23 0
162 -14 -57 0
140 -42 -84 0
189 180 -70 0
130 162 -53 0
143 45 -189 0
200 -122 -28 0
57 74 -52 0
75 60 -22 0
-147 -14 -1 0
24 186 -133 0
165 111 -48 0
177 175 -106 0
128 48 -55 0
104 181 -69 0
169 175 135 0
98 141 -126 0
153 111 120 0
97 70 -200 0
-47 -40 -46 0
37 119 -98 0
18 73 -177 0
147 22 -15 0
14 192 -135 0
160 108 -198 0
93 -168 -106 0
112 -172 -119 0
139 -125 -75 0
26 44 59 0
46 152 20 0
36 13 20 0
20 121 -36 0
-178 -78 -154 0
183 167 120 0
176 -188 -199 0
-128 -112 -181 0
108 -58 -65 0
1 26 73 0
77 -175 -27 0
58 -130 -170 0
181 69 -42 0
165 -194 -80 0
94 169 -148 0
107 119 173 0
192 162 -96 0
15 34 -173 0
118 -53 -163 0
60 139 -27 0
179 121 125 0
35 127 -41 0
137 -196 -23 0
-164 -10 -5 0
166 133 -112 0
89 39 -79 0
176 45 -51 0
27 162 -149 0
89 -102 -41 0
188 -72 -179 0
4 141 -128 0
169 -191 -99 0
-164 -112 -24 0
50 -38 -119 0
142 -43 -164 0
167 141 -123 0
-131 -182 -49 0
82 149 -188 0
129 74 69 0
-75 -58 -174 0
116 12 96 0
97 59 50 0
172 -160 -192 0
57 85 -17 0
-45 -101 -131 0
46 -142 -11 0
-32 -62 -4 0
26 -162 -30 0
79 75 130 0
139 -85 -195 0
114 20 -60 0
106 91 -141 0
196 -91 -138 0
114 134 -51 0
69 175 131 0
61 155 77 0
169 166 -8 0
179 165 -73 0
63 76 -97 0
199 109 -78 0
24 173 -187 0
-9 -169 -41 0
121 -21 -159 0
175 195 -70 0
58 -91 -156 0
195 136 -161 0
199 185 -64 0
120 118 119 0
104 -197 -143 0
16 -48 -119 0
101 -140 -120 0
170 -158 -190 0
78 -7 -51 0
172 155 -85 0
-157 -30 -114 0
64 13 -194 0
87 -182 -119 0
5 -119 -69 0
198 -187 -25 0
92 97 -35 0
197 135 -156 0
111 14 -162 0
9 159 182 0
10 -6 -149 0
141 51 -146 0
149 -48 -191 0
71 118 -27 0
194 143 -28 0
64 -8 -191 0
95 -48 -114 0
-75 -166 -15 0
21 159 -124 0
-10 -18 -155 0
39 -127 -190 0
44 36 -56 0
-38 -177 -155 0
146 15 -101 0
74 39 -13 0
106 117 -195 0
-24 -53 -90 0
-187 -156 -5 0
76 -162 -147 0
128 7 -57 0
147 30 193 0
163 -61 -29 0
187 47 -132 0
36 35 -194 0
146 147 198 0
158 31 -18 0
-163 -99 -64 0
93 88 154 0
104 -121 -188 0
-67 -159 -69 0
189 181 -64 0
141 -85 -162 0
166 -60 -80 0
122 -98 -145 0
170 19 51 0
82 145 -149 0
60 53 -193 0
28 135 -115 0
88 27 -98 0
55 168 -129 0
147 50 -8 0
43 4 -139 0
25 -37 -14 0
120 -47 -17 0
36 50 -159 0
97 -23 -193 0
29 13 16 0
84 7 -44 0
183 98 -35 0
48 38 -181 0
15 -5 -170 0
184 -66 -137 0
71 163 -186 0
185 -13 -28 0
23 177 -28 0
198 18 -117 0
85 -137 -104 0
196 -128 -200 0
122 151 141 0
76 -39 -63 0
137 -134 -48 0
30 159 -84 0
51 190 37 0
163 18 -185 0
80 -115 -63 0
136 161 -32 0
170 -155 -113 0
149 -72 -173 0
146 -159 -199 0
84 -134 -95 0
91 -22 -151 0
114 174 -91 0
29 -140 -106 0
100 102 -38 0
181 67 72 0
52 98 107 0
136 101 148 0
163 -37 -167 0
116 3 -34 0
3 -42 -79 0
133 -144 -59 0
69 -33 -118 0
38 -3 -162 0
-7 -117 -18 0
118 -107 -129 0
159 107 -149 0
32 -136 -39 0
85 175 57 0
131 93 -12 0
88 -101 -46 0
-4 -48 -58 0
-157 -128 -112 0
162 -150 -81 0
179 -9 -54 0
20 77 -7 0
137 12 -116 0
4 45 83 0
36 122 86 0
33 -146 -47 0
-91 -199 -47 0
130 -35 -200 0
149 19 -36 0
54 161 -66 0
164 -147 -14 0
154 199 -10 0
173 -16 -44 0
10 20 156 0
-29 -183 -76 0
155 40 -20 0
23 -176 -156 0
115 11 -46 0
95 80 -31 0
15 -120 -39 0
46 145 -132 0
-20 -143 -103 0
26 137 -119 0
-52 -105 -161 0
90 90 -139 0
27 51 -31 0
195 93 29 0
107 66 -45 0
153 156 -128 0
158 80 102 0
28 -28 -196 0
188 -78 -18 0
136 62 -61 0
93 -192 -180 0
75 35 11 0
26 -122 -162 0
43 -189 -79 0
133 -68 -13 0
32 144 -60 0
30 35 -58 0
10 68 38 0
135 -110 -143 0
104 153 -160 0
-191 -165 -102 0
109 4 -53 0
96 47 -21 0
116 -41 -147 0
28 82 26 0
59 -195 -160 0
131 1 -30 0
62 -119 -142 0
126 52 77 0
85 -34 -127 0
-1 -76 -67 0
72 91 98 0
-80 -19 -148 0
92 168 133 0
162 21 -188 0
157 -172 -19 0
81 26 -69 0
32 159 -61 0
102 -143 -152 0
147 92 75 0
45 137 -21 0
200 -47 -82 0
76 184 -107 0
67 60 -88 0
193 33 -43 0
110 -143 -163 0
-87 -154 -155 0
192 145 -101 0
21 -156 -88 0
89 58 171 0
185 -195 -69 0
132 -9 -199 0
125 151 -90 0
-104 -66 -11 0
17 123 -70 0
35 49 -112 0
176 122 -175 0
193 22 -67 0
71 113 58 0
133 2 -33 0
131 -193 -94 0
70 146 -180 0
109 199 -10 0
12 33 63 0
27 151 -12 0
168 7 -164 0
-31 -140 -46 0
132 189 -168 0
134 -142 -87 0
139 23 -169 0
48 130 -7 0
145 -184 -73 0
178 -110 -111 0
