c s2_mpfx_neg_SQORealSpacePSO
p cnf 200 870
115 174 7 0
66 -137 -66 0
49 188 -171 0
68 44 -90 0
49 102 199 0
192 104 -102 0
10 150 19 0
62 22 -149 0
200 -192 -65 0
-50 -49 -38 0
-109 -165 -46 0
196 -122 -27 0
148 194 199 0
38 -92 -193 0
121 -21 -176 0
145 75 -68 0
194 179 -158 0
111 61 -141 0
63 22 -99 0
68 -177 -139 0
198 68 122 0
4 -79 -89 0
46 2 157 0
156 -172 -47 0
54 -24 -72 0
56 119 -138 0
124 54 -190 0
27 -52 -28 0
65 -56 -165 0
89 180 -13 0
167 -191 -73 0
112 93 131 0
-16 -119 -46 0
95 137 -45 0
130 166 -16 0
50 -124 -141 0
158 -142 -71 0
66 35 -81 0
38 197 -69 0
191 -199 -146 0
-45 -149 -100 0
15 82 -152 0
105 189 119 0
-29 -191 -120 0
108 -14 -48 0
77 -177 -54 0
-149 -125 -52 0
114 158 -44 0
92 -15 -40 0
94 18 101 0
122 56 97 0
177 26 -57 0
134 72 -181 0
35 -83 -80 0
12 20 -109 0
185 -27 -145 0
112 -92 -90 0
195 176 -122 0
-149 -59 -37 0
-93 -81 -118 0
14 92 -184 0
40 78 -165 0
-97 -17 -137 0
91 134 161 0
159 -109 -123 0
179 -136 -120 0
196 -52 -117 0
63 104 -3 0
193 173 -39 0
185 -46 -75 0
196 -11 -191 0
58 -84 -187 0
105 -200 -28 0
179 11 -141 0
189 -31 -139 0
100 18 -68 0
53 37 -45 0
33 -80 -78 0
-167 -171 -42 0
22 -151 -78 0
61 -100 -133 0
101 46 -188 0
14 163 -14 0
180 -41 -99 0
166 174 -57 0
58 -77 -156 0
52 161 -148 0
38 86 -200 0
181 -142 -54 0
10 189 -21 0
3 159 -24 0
66 59 14 0
-199 -108 -72 0
51 -5 -99 0
179 3 -3 0
9 -158 -200 0
31 -166 -46 0
39 127 102 0
108 -136 -108 0
130 3 -28 0
181 7 -69 0
-87 -30 -25 0
165 -104 -52 0
107 -36 -99 0
72 66 -65 0
91 133 85 0
147 116 -120 0
-126 -131 -181 0
36 -71 -157 0
125 120 -4 0
-169 -146 -12 0
2 -145 -184 0
135 -122 -21 0
8 129 -69 0
162 6 -113 0
44 -98 -34 0
78 28 -15 0
92 96 150 0
71 -178 -26 0
184 43 -9 0
83 179 -159 0
78 -88 -182 0
23 141 -151 0
178 -20 -10 0
14 -159 -6 0
76 36 -52 0
127 -90 -32 0
197 62 144 0
88 185 -13 0
145 -2 -90 0
44 -128 -198 0
12 -116 -151 0
23 163 -32 0
-117 -138 -162 0
26 -187 -158 0
192 -33 -32 0
14 -44 -164 0
6 91 81 0
183 129 -181 0
150 -118 -184 0
200 -126 -112 0
16 11 186 0
141 105 -9 0
-53 -28 -67 0
75 91 -198 0
59 76 -72 0
81 16 -100 0
-55 -68 -43 0
55 105 -112 0
197 50 -134 0
142 -39 -128 0
147 98 -69 0
91 130 64 0
5 -9 -34 0
108 -28 -116 0
94 24 155 0
73 128 -60 0
101 1 -200 0
1 -109 -195 0
1 134 -46 0
81 88 -159 0
42 149 14 0
18 -101 -48 0
81 109 74 0
146 -180 -18 0
33 192 -17 0
27 88 -187 0
169 -19 -184 0
161 -47 -193 0
42 -124 -47 0
72 -84 -67 0
97 4 -177 0
-107 -39 -165 0
172 -159 -160 0
179 -54 -172 0
42 -34 -174 0
133 -153 -11 0
85 188 -100 0
141 145 58 0
30 96 -115 0
24 170 -149 0
5 -195 -156 0
2 -16 -82 0
130 180 -8 0
111 -137 -17 0
70 -96 -2 0
178 -172 -23 0
58 77 -104 0
48 -75 -57 0
79 -104 -181 0
15 85 -46 0
157 91 -104 0
130 -183 -190 0
23 197 -197 0
179 -119 -28 0
-139 -142 -17 0
70 -144 -91 0
1 -199 -71 0
197 89 -118 0
61 10 -11 0
22 -48 -52 0
93 -8 -18 0
35 -111 -173 0
-172 -161 -94 0
-28 -154 -57 0
49 22 116 0
-104 -161 -9 0
83 -169 -93 0
-169 -82 -20 0
179 156 -53 0
125 -154 -132 0
177 -171 -57 0
129 -142 -103 0
161 -193 -75 0
168 -53 -64 0
52 -176 -89 0
55 -78 -13 0
-36 -11 -151 0
129 -153 -31 0
42 158 -41 0
-38 -4 -66 0
138 -91 -129 0
198 74 -163 0
132 -102 -119 0
-136 -47 -92 0
41 153 186 0
50 -152 -153 0
107 127 -196 0
24 -8 -158 0
138 -47 -148 0
9 -61 -109 0
-97 -113 -101 0
-163 -130 -135 0
166 -94 -33 0
73 -110 -19 0
95 96 42 0
14 -193 -21 0
70 98 178 0
178 166 -44 0
21 109 -157 0
111 -16 -11 0
143 -103 -139 0
56 -40 -60 0
110 72 -1 0
27 162 -54 0
27 -63 -25 0
101 92 -179 0
25 36 -126 0
171 -50 -81 0
114 -131 -144 0
-119 -161 -162 0
83 62 -65 0
185 71 39 0
180 82 -75 0
177 17 -104 0
14 185 14 0
21 146 116 0
101 106 -32 0
189 36 -156 0
35 180 190 0
-119 -107 -126 0
148 143 -184 0
145 -98 -178 0
96 157 10 0
4 114 -199 0
123 67 -6 0
57 -98 -143 0
155 70 -112 0
196 167 57 0
154 -20 -177 0
121 -101 -99 0
171 -20 -31 0
191 92 -59 0
-82 -162 -56 0
31 86 -40 0
87 51 -63 0
-145 -68 -5 0
179 37 123 0
112 152 -63 0
200 -15 -83 0
148 195 -188 0
-141 -195 -98 0
96 90 -143 0
87 -45 -22 0
198 -3 -32 0
147 6 -162 0
41 -196 -82 0
59 76 159 0
105 137 -10 0
103 -155 -125 0
56 -50 -14 0
24 -176 -80 0
149 -176 -94 0
180 135 -117 0
-140 -150 -95 0
107 -154 -23 0
22 -144 -10 0
19 111 -164 0
11 -161 -7 0
195 64 -138 0
76 55 -12 0
142 -37 -173 0
-152 -65 -158 0
37 43 -2 0
114 16 -41 0
105 40 69 0
1 40 -167 0
39 192 -163 0
40 146 35 0
21 77 -50 0
63 -6 -43 0
24 82 -181 0
33 41 -125 0
133 168 -16 0
10 39 -168 0
172 94 -86 0
-182 -124 -54 0
29 -38 -138 0
171 161 -94 0
72 199 96 0
22 -54 -45 0
134 80 -13 0
136 22 -167 0
124 -54 -30 0
121 -26 -15 0
150 101 169 0
133 -30 -161 0
92 93 -106 0
124 -43 -200 0
95 163 -197 0
12 -91 -183 0
32 27 -42 0
151 18 -70 0
34 132 -29 0
141 72 -61 0
-101 -164 -194 0
19 183 -123 0
122 192 161 0
152 171 -126 0
94 116 -120 0
20 -76 -189 0
35 131 -19 0
37 110 -187 0
71 13 23 0
155 -184 -70 0
153 51 -145 0
170 22 -8 0
105 76 -134 0
98 110 138 0
62 179 -22 0
23 67 96 0
112 -133 -3 0
-68 -155 -25 0
9 -134 -59 0
-118 -50 -11 0
104 96 -175 0
-53 -127 -120 0
126 185 -65 0
-125 -175 -86 0
5 -168 -17 0
30 129 -117 0
45 73 -162 0
121 40 -147 0
91 -184 -70 0
-89 -67 -99 0
74 -200 -39 0
33 -108 -124 0
-57 -118 -42 0
143 82 -50 0
76 157 -124 0
90 -194 -3 0
132 -115 -59 0
-115 -53 -199 0
21 79 192 0
47 128 -17 0
80 25 147 0
137 -33 -168 0
78 50 -9 0
68 48 -45 0
96 180 -99 0
-12 -146 -57 0
40 163 -47 0
197 -93 -17 0
184 7 -65 0
49 66 -9 0
75 85 150 0
124 -100 -94 0
8 1 -64 0
122 37 -12 0
125 161 -26 0
-15 -95 -75 0
17 -88 -47 0
17 53 194 0
15 111 -53 0
53 74 -148 0
108 163 -5 0
158 45 -34 0
76 148 -156 0
165 -34 -173 0
-180 -121 -48 0
182 124 -49 0
146 86 -53 0
200 89 -9 0
78 -38 -128 0
170 103 -132 0
75 100 -115 0
-34 -2 -105 0
190 -86 -7 0
97 99 -21 0
181 163 -160 0
44 55 -78 0
-162 -16 -108 0
-32 -8 -169 0
23 13 100 0
75 -19 -167 0
139 -28 -136 0
13 188 -147 0
162 -104 -13 0
117 25 167 0
93 125 -191 0
38 -136 -71 0
128 89 -170 0
190 -146 -93 0
198 138 -10 0
118 106 4 0
87 196 52 0
65 152 -97 0
73 -12 -80 0
18 -89 -101 0
23 8 -110 0
116 -63 -177 0
69 33 -186 0
185 45 -145 0
161 -81 -172 0
89 152 -165 0
73 -13 -30 0
57 131 -39 0
155 150 -62 0
-59 -91 -35 0
176 41 -99 0
199 44 -152 0
-84 -75 -2 0
144 108 146 0
-53 -67 -132 0
20 -10 -114 0
55 163 -129 0
120 -49 -169 0
3 161 -61 0
101 -48 -142 0
186 -18 -157 0
152 146 -119 0
134 12 -71 0
88 -128 -82 0
25 75 187 0
37 -181 -39 0
10 -33 -25 0
122 20 -199 0
3 -67 -115 0
143 39 -105 0
-83 -51 -111 0
28 92 -65 0
63 95 156 0
-122 -164 -140 0
17 23 -100 0
117 84 -104 0
29 -73 -129 0
64 -112 -120 0
108 97 193 0
-58 -148 -116 0
103 168 -111 0
40 -71 -24 0
58 -93 -156 0
130 -12 -173 0
74 22 -191 0
63 -196 -136 0
102 12 -70 0
36 42 58 0
117 49 -53 0
173 -194 -91 0
101 32 -17 0
31 161 -55 0
180 -75 -22 0
64 192 -62 0
178 -34 -22 0
51 -107 -83 0
131 -192 -156 0
146 -99 -92 0
28 -47 -174 0
100 17 -21 0
173 -46 -194 0
58 -95 -118 0
75 96 -28 0
86 60 -54 0
183 16 -65 0
7 -50 -141 0
140 -98 -87 0
92 -115 -67 0
188 -44 -86 0
141 -90 -126 0
178 77 -48 0
94 22 -143 0
155 -96 -34 0
27 -72 -180 0
-1 -48 -65 0
69 -137 -117 0
-124 -121 -45 0
98 35 -160 0
-105 -172 -194 0
-9 -25 -178 0
135 -156 -200 0
119 104 -155 0
39 78 -103 0
187 61 -71 0
4 -115 -167 0
136 26 24 0
11 -169 -170 0
141 -71 -84 0
142 86 195 0
118 132 -165 0
43 109 -52 0
137 147 -58 0
175 91 113 0
187 137 -66 0
184 -123 -15 0
12 46 -195 0
103 -70 -52 0
106 129 50 0
117 -19 -148 0
41 -36 -176 0
44 -132 -140 0
192 136 -18 0
124 -162 -184 0
62 176 142 0
120 52 186 0
-155 -13 -139 0
98 -102 -27 0
100 12 87 0
174 87 -60 0
18 200 -146 0
80 -69 -164 0
28 -13 -2 0
22 -176 -56 0
197 199 -50 0
8 -120 -124 0
149 -182 -137 0
23 167 -19 0
127 -198 -119 0
162 88 -58 0
47 -7 -65 0
30 106 -126 0
110 -86 -35 0
9 135 -132 0
48 91 -2 0
172 -197 -110 0
3 154 -45 0
182 147 195 0
59 23 -97 0
165 -58 -30 0
83 -135 -117 0
1 -71 -112 0
72 -43 -41 0
51 167 -108 0
184 -123 -79 0
86 63 126 0
41 -191 -159 0
13 68 -100 0
113 74 137 0
73 -63 -6 0
4 127 155 0
-52 -186 -88 0
133 33 -114 0
78 -57 -106 0
154 -111 -93 0
43 -85 -59 0
17 -98 -141 0
197 3 -188 0
84 22 -44 0
78 -141 -15 0
109 195 -171 0
6 -96 -15 0
88 -124 -43 0
-2 -176 -187 0
68 -128 -164 0
46 -73 -32 0
199 -134 -132 0
-151 -49 -138 0
181 120 -124 0
32 108 -166 0
-39 -113 -192 0
192 90 156 0
141 94 -168 0
30 182 56 0
1 -93 -200 0
179 -127 -162 0
165 199 -158 0
17 185 -9 0
192 134 54 0
73 -47 -134 0
110 60 -25 0
146 15 -190 0
111 -75 -193 0
-83 -168 -173 0
-139 -96 -179 0
45 114 -19 0
169 -122 -114 0
-88 -55 -4 0
50 166 -103 0
117 -74 -40 0
43 -10 -60 0
147 -131 -1 0
60 95 71 0
137 -46 -145 0
123 118 -66 0
66 199 -78 0
96 -160 -60 0
-196 -190 -102 0
15 134 -63 0
28 32 185 0
193 -62 -78 0
51 -74 -111 0
9 -28 -170 0
186 -77 -4 0
3 -108 -38 0
-146 -69 -51 0
5 -198 -75 0
66 30 -77 0
55 -106 -123 0
47 -143 -97 0
148 23 -90 0
2 -138 -60 0
6 137 -72 0
105 -84 -79 0
33 140 -180 0
131 14 -3 0
117 -8 -77 0
194 185 3 0
14 55 -163 0
91 8 -139 0
164 141 133 0
185 41 -108 0
173 -26 -172 0
173 188 -2 0
10 -82 -92 0
21 -164 -30 0
49 -27 -76 0
-184 -80 -88 0
-130 -142 -187 0
105 -167 -104 0
159 23 -165 0
44 -189 -138 0
4 55 197 0
150 113 -106 0
171 78 -34 0
-57 -30 -128 0
95 -196 -32 0
-87 -120 -95 0
194 -52 -26 0
84 71 122 0
1 138 -12 0
124 16 -103 0
-165 -143 -169 0
23 169 188 0
119 -57 -173 0
63 198 -110 0
171 -161 -87 0
98 -192 -147 0
112 -137 -58 0
120 25 -47 0
157 -72 -74 0
104 -97 -93 0
9 -197 -118 0
35 22 -3 0
68 68 -170 0
12 -183 -25 0
122 155 -64 0
131 -33 -15 0
15 -49 -168 0
-72 -3 -26 0
65 139 -140 0
144 171 -70 0
-193 -142 -3 0
-148 -40 -187 0
83 -74 -52 0
180 151 15 0
7 196 -54 0
101 59 60 0
5 163 -130 0
179 -90 -170 0
23 -63 -144 0
94 124 158 0
198 137 -4 0
39 -123 -31 0
111 -117 -47 0
115 -3 -76 0
-136 -131 -179 0
55 -82 -135 0
194 159 16 0
145 94 -86 0
92 149 -113 0
6 115 -38 0
4 40 52 0
85 32 -32 0
119 149 -37 0
-141 -137 -132 0
58 -140 -104 0
50 179 -45 0
61 -127 -99 0
182 94 -90 0
10 46 -106 0
126 147 172 0
158 170 -84 0
4 -54 -149 0
23 -42 -8 0
136 -175 -130 0
121 -121 -141 0
30 134 -162 0
92 23 -166 0
-35 -189 -56 0
76 137 -164 0
-130 -16 -89 0
28 35 197 0
168 -12 -59 0
195 145 -99 0
154 94 -123 0
142 147 -81 0
136 171 -188 0
163 -152 -186 0
76 -31 -174 0
130 -166 -173 0
31 -122 -110 0
105 -123 -26 0
-159 -131 -36 0
-117 -54 -135 0
2 -110 -129 0
-102 -2 -83 0
29 -133 -54 0
123 -173 -104 0
-85 -133 -1 0
4 196 -151 0
-75 -128 -115 0
130 187 -32 0
33 -11 -197 0
-64 -146 -111 0
191 143 -20 0
178 -61 -188 0
82 -109 -109 0
26 15 -122 0
152 -108 -61 0
99 -159 -65 0
6 -29 -168 0
-154 -3 -62 0
178 108 41 0
42 -51 -121 0
118 123 138 0
73 -139 -27 0
153 16 199 0
38 189 32 0
47 136 -81 0
-66 -71 -83 0
-72 -133 -121 0
95 145 -25 0
31 37 -150 0
136 -50 -115 0
92 19 -149 0
133 -34 -66 0
24 190 -182 0
193 145 -195 0
103 -88 -106 0
52 -136 -163 0
148 8 -111 0
7 194 -193 0
184 -198 -23 0
55 -190 -108 0
8 104 -135 0
169 138 -186 0
63 72 139 0
189 -56 -96 0
34 -125 -179 0
82 -69 -109 0
113 195 -28 0
110 157 3 0
127 -107 -184 0
-40 -196 -138 0
175 131 -52 0
-149 -159 -136 0
195 74 -130 0
55 152 67 0
37 42 -83 0
193 -111 -4 0
77 -104 -151 0
-33 -175 -152 0
104 -41 -26 0
92 -96 -39 0
140 -81 -66 0
51 16 119 0
87 -137 -150 0
34 89 -156 0
-194 -92 -189 0
10 50 -7 0
86 77 -56 0
-93 -199 -17 0
200 -54 -34 0
20 72 -187 0
142 6 -39 0
48 9 -102 0
-34 -200 -31 0
-67 -20 -22 0
104 -42 -16 0
18 145 -38 0
176 33 19 0
167 28 39 0
9 139 -166 0
84 70 -50 0
37 141 95 0
134 -48 -97 0
71 87 -160 0
77 38 -109 0
-193 -96 -95 0
122 -31 -47 0
154 -94 -137 0
8 50 -63 0
200 -198 -15 0
69 15 -163 0
163 -8 -198 0
153 123 69 0
100 26 -95 0
169 38 66 0
67 85 -102 0
96 -133 -44 0
128 -19 -161 0
30 -115 -92 0
-125 -175 -141 0
-140 -19 -20 0
177 10 -111 0
180 -97 -6 0
76 163 133 0
152 17 -90 0
23 39 -36 0
158 113 -2 0
37 114 -108 0
7 2 -184 0
-70 -81 -180 0
164 -44 -149 0
191 -70 -110 0
93 -79 -46 0
125 -200 -51 0
171 101 -174 0
27 -165 -66 0
90 -109 -16 0
17 25 46 0
174 -164 -31 0
61 -179 -53 0
34 -64 -158 0
27 55 -175 0
66 119 -65 0
1 -27 -144 0
-22 -59 -39 0
50 -67 -75 0
150 -9 -33 0
21 -102 -144 0
109 -107 -86 0
69 -3 -93 0
133 -119 -107 0
-84 -12 -64 0
25 48 -104 0
-114 -141 -162 0
142 63 -182 0
-182 -31 -199 0
-191 -200 -186 0
43 16 -13 0
