c s2_mpfx_pow2_PSO
p cnf 200 837
73 -120 -184 0
-186 -190 -36 0
162 -130 -25 0
117 71 -110 0
200 53 -78 0
148 34 -151 0
151 42 -128 0
103 -115 -22 0
106 -194 -72 0
120 -51 -112 0
90 125 -105 0
109 168 -46 0
-166 -108 -111 0
164 3 -161 0
30 182 54 0
46 32 -83 0
52 27 144 0
45 -140 -75 0
177 14 -185 0
113 -106 -12 0
165 -110 -55 0
-84 -178 -198 0
87 -31 -134 0
49 77 -2 0
116 111 14 0
48 129 -125 0
99 -159 -86 0
81 2 -10 0
31 69 -168 0
131 145 -91 0
165 -62 -8 0
84 -106 -76 0
73 55 -37 0
-35 -181 -195 0
24 114 -148 0
70 -103 -200 0
131 137 104 0
169 107 -145 0
29 172 -60 0
133 23 -92 0
6 -118 -63 0
45 129 -192 0
173 -50 -72 0
20 119 107 0
48 79 -162 0
174 -177 -60 0
118 -7 -161 0
111 69 -28 0
162 -114 -157 0
199 -137 -107 0
153 -9 -14 0
193 -167 -1 0
-69 -6 -99 0
28 153 -151 0
175 126 -77 0
152 164 -70 0
109 -177 -151 0
90 -17 -35 0
160 -110 -150 0
80 132 -62 0
73 200 -184 0
167 195 192 0
72 84 -195 0
-198 -105 -137 0
78 -64 -139 0
5 55 -82 0
-164 -16 -75 0
177 167 -194 0
92 -161 -89 0
138 116 144 0
15 -32 -27 0
75 63 -55 0
132 185 -173 0
14 60 -2 0
48 -21 -45 0
196 200 183 0
146 161 -172 0
75 -42 -123 0
124 110 -157 0
103 -156 -47 0
20 94 -6 0
-156 -106 -145 0
150 -181 -8 0
112 -134 -153 0
11 5 -173 0
171 156 -53 0
14 25 -126 0
104 123 35 0
190 -130 -65 0
5 18 -185 0
130 133 -16 0
198 27 67 0
131 27 -9 0
2 -135 -167 0
66 200 -23 0
179 -28 -48 0
57 115 -103 0
114 140 -181 0
126 174 69 0
188 -74 -195 0
-190 -125 -101 0
181 87 139 0
134 -110 -47 0
88 -128 -21 0
189 -190 -92 0
74 85 196 0
64 74 -128 0
195 184 41 0
136 126 -81 0
10 116 -74 0
41 -133 -94 0
195 -121 -59 0
35 -154 -37 0
174 178 -25 0
49 174 -69 0
29 160 -86 0
38 13 -199 0
60 26 -73 0
54 -41 -173 0
-116 -9 -83 0
163 154 -22 0
156 -45 -94 0
174 102 -175 0
179 176 -165 0
104 37 83 0
4 188 -91 0
78 25 -24 0
25 -4 -32 0
117 -145 -163 0
168 180 -130 0
14 -167 -55 0
168 126 190 0
157 171 -90 0
101 13 -142 0
32 190 -188 0
169 148 -192 0
15 -6 -191 0
200 -38 -26 0
152 48 -187 0
-124 -4 -176 0
-161 -17 -194 0
86 3 -10 0
113 -13 -175 0
14 -152 -169 0
-105 -199 -152 0
29 7 -116 0
124 -109 -195 0
81 -126 -38 0
36 -65 -112 0
172 -99 -40 0
146 -57 -87 0
-6 -143 -54 0
165 106 -146 0
50 190 21 0
106 20 184 0
119 -164 -113 0
-165 -172 -19 0
91 152 -59 0
98 -41 -191 0
67 -118 -137 0
5 -198 -145 0
176 -104 -151 0
-108 -101 -120 0
112 -54 -100 0
56 194 173 0
-199 -137 -51 0
-38 -124 -30 0
-122 -13 -172 0
-128 -178 -47 0
172 -9 -124 0
8 38 -12 0
11 95 -42 0
97 -110 -3 0
80 122 -187 0
-3 -44 -141 0
147 61 -129 0
182 132 -70 0
85 -138 -39 0
84 40 -79 0
16 -194 -32 0
44 -19 -114 0
82 -82 -120 0
177 154 47 0
45 -2 -18 0
190 -145 -199 0
143 27 150 0
29 176 -195 0
5 182 -113 0
50 42 -121 0
135 144 -101 0
-15 -27 -134 0
-190 -71 -112 0
191 -99 -98 0
89 195 -14 0
139 186 -182 0
67 -171 -199 0
196 -195 -147 0
95 178 -110 0
-72 -142 -144 0
-192 -165 -154 0
74 93 8 0
101 -189 -62 0
15 75 49 0
23 -9 -112 0
186 -173 -57 0
17 -58 -42 0
87 47 171 0
177 51 -85 0
164 128 81 0
159 92 -158 0
81 -68 -160 0
168 185 -16 0
153 186 13 0
87 44 -62 0
165 197 -19 0
37 -175 -102 0
52 -159 -45 0
30 36 -134 0
47 78 -99 0
-56 -30 -170 0
125 113 -31 0
174 -186 -137 0
134 -8 -55 0
55 -130 -167 0
28 79 -8 0
-148 -89 -90 0
184 71 -55 0
117 -48 -55 0
92 103 179 0
113 -90 -121 0
36 194 98 0
5 88 -173 0
5 91 -127 0
186 172 47 0
3 -34 -51 0
159 -26 -104 0
159 -132 -122 0
189 -137 -128 0
-199 -163 -128 0
136 145 -50 0
109 140 -156 0
25 -65 -143 0
157 -11 -42 0
1 -173 -164 0
41 109 -163 0
182 141 49 0
27 -155 -54 0
39 -26 -2 0
149 165 -85 0
13 134 -120 0
58 -33 -6 0
32 118 38 0
-23 -181 -193 0
77 107 -164 0
123 -136 -34 0
62 22 -145 0
189 -14 -16 0
113 -113 -93 0
86 -125 -188 0
45 -132 -171 0
179 -115 -163 0
198 -27 -68 0
-124 -97 -122 0
117 -60 -125 0
100 -86 -80 0
172 159 -24 0
34 -96 -66 0
120 192 -156 0
110 199 -125 0
26 179 -199 0
175 102 -180 0
148 64 -29 0
70 124 -59 0
71 -82 -74 0
43 169 -102 0
199 174 74 0
99 -179 -131 0
47 3 97 0
98 76 -168 0
76 -169 -101 0
21 -174 -71 0
123 73 -133 0
106 -71 -83 0
151 178 -77 0
170 -109 -6 0
42 6 135 0
77 1 -125 0
36 -141 -167 0
20 177 -4 0
121 -189 -175 0
54 -28 -92 0
146 -21 -138 0
137 -190 -141 0
112 68 145 0
95 100 -189 0
27 5 -151 0
13 25 -79 0
115 53 -182 0
-121 -139 -185 0
112 -147 -118 0
66 140 -177 0
38 -164 -29 0
115 183 -33 0
8 80 -49 0
169 -36 -69 0
58 102 -91 0
158 2 -97 0
-20 -56 -151 0
179 64 121 0
39 83 -144 0
84 -142 -166 0
191 78 -2 0
200 72 39 0
-54 -124 -193 0
178 -160 -188 0
162 -87 -89 0
180 -95 -63 0
116 -77 -48 0
72 182 -13 0
42 143 13 0
110 94 -107 0
11 -100 -67 0
94 -186 -12 0
122 43 -107 0
81 95 11 0
32 20 -28 0
84 -10 -157 0
20 -179 -99 0
49 28 -137 0
68 67 91 0
10 175 -98 0
186 -80 -48 0
79 29 -36 0
87 14 -199 0
46 145 -7 0
-45 -148 -27 0
160 -149 -49 0
110 79 176 0
106 147 62 0
154 -124 -82 0
191 165 -12 0
120 99 -51 0
42 36 -134 0
88 89 171 0
3 -187 -109 0
159 96 -195 0
12 39 -171 0
50 -175 -103 0
197 66 112 0
69 -88 -74 0
179 -29 -136 0
64 -95 -108 0
-134 -26 -123 0
174 95 -189 0
-158 -130 -124 0
8 55 -127 0
96 188 -125 0
111 190 -110 0
77 92 -176 0
187 -154 -119 0
102 63 48 0
-2 -61 -175 0
154 81 106 0
86 -40 -60 0
125 98 -24 0
152 2 135 0
92 5 -153 0
161 58 -27 0
-8 -151 -13 0
-62 -28 -10 0
-156 -200 -103 0
-97 -142 -23 0
112 134 -182 0
93 181 -185 0
115 97 -180 0
33 46 -168 0
192 3 83 0
181 -110 -70 0
5 85 -111 0
-197 -165 -193 0
12 77 -176 0
43 63 -43 0
38 -12 -157 0
158 -111 -116 0
154 72 176 0
115 -24 -124 0
181 -63 -85 0
110 -61 -25 0
152 54 70 0
25 -170 -102 0
114 -52 -115 0
190 121 -87 0
-148 -117 -112 0
89 -39 -170 0
58 -191 -89 0
93 97 -172 0
101 92 123 0
20 60 152 0
9 -196 -29 0
43 -59 -114 0
76 10 -86 0
127 -134 -138 0
183 193 49 0
176 -150 -48 0
-99 -81 -45 0
3 -6 -109 0
52 183 -22 0
78 -34 -165 0
160 21 -78 0
18 -179 -9 0
96 -23 -193 0
125 -114 -54 0
-40 -138 -73 0
100 -185 -48 0
63 -122 -130 0
123 -123 -49 0
109 150 -98 0
18 49 119 0
78 59 119 0
83 88 -110 0
48 136 -46 0
24 -117 -52 0
88 -74 -180 0
119 67 -7 0
142 52 -146 0
15 -41 -154 0
160 -26 -200 0
119 136 -137 0
-109 -62 -118 0
-120 -42 -139 0
83 85 143 0
16 104 -14 0
5 -18 -129 0
8 48 -155 0
165 191 174 0
86 -198 -184 0
31 189 -48 0
167 -70 -170 0
48 122 -128 0
103 -29 -111 0
159 187 -181 0
128 180 -144 0
155 60 -109 0
174 -35 -98 0
44 52 -184 0
-166 -66 -55 0
158 -10 -33 0
143 108 91 0
29 -156 -184 0
167 25 30 0
52 144 70 0
79 65 191 0
171 192 178 0
193 -30 -179 0
46 72 -122 0
40 154 -10 0
189 153 19 0
77 -38 -31 0
64 51 -157 0
19 -161 -6 0
32 101 -147 0
130 95 -51 0
-172 -117 -73 0
157 30 -14 0
3 178 20 0
126 26 107 0
35 81 -35 0
-101 -2 -41 0
-185 -160 -80 0
168 149 115 0
140 -159 -137 0
57 87 -6 0
75 169 187 0
-71 -36 -184 0
33 199 -117 0
135 191 1 0
163 173 159 0
-162 -31 -66 0
120 -128 -68 0
162 -154 -156 0
13 -178 -108 0
162 -21 -67 0
193 -72 -8 0
116 198 138 0
138 72 -177 0
40 48 -132 0
53 -77 -20 0
3 -62 -162 0
76 105 -54 0
183 -52 -191 0
29 -25 -15 0
95 179 -197 0
176 99 185 0
83 -25 -170 0
120 -27 -12 0
169 171 -182 0
49 175 -108 0
186 169 196 0
-38 -7 -125 0
135 42 120 0
16 -48 -51 0
56 97 170 0
128 -199 -170 0
111 31 -159 0
147 -37 -18 0
87 181 -137 0
84 151 130 0
20 -16 -135 0
22 -131 -68 0
179 105 -43 0
133 10 170 0
28 158 -6 0
-32 -94 -145 0
77 164 -67 0
159 -170 -86 0
192 -99 -84 0
53 -35 -143 0
192 86 182 0
142 172 -170 0
57 24 -126 0
-168 -68 -29 0
198 17 86 0
144 27 80 0
34 136 -111 0
-40 -36 -127 0
159 181 -68 0
-34 -162 -57 0
107 55 13 0
126 -80 -171 0
41 115 -200 0
166 -53 -96 0
199 24 -45 0
83 -196 -199 0
23 -38 -174 0
-63 -182 -18 0
142 -162 -171 0
133 -139 -84 0
82 3 -109 0
-193 -73 -57 0
35 96 -13 0
186 164 -8 0
-33 -83 -100 0
155 90 -39 0
127 2 190 0
134 166 73 0
55 -114 -136 0
140 -188 -74 0
136 85 -56 0
-37 -185 -138 0
12 -165 -53 0
57 170 76 0
101 161 -54 0
50 36 -124 0
-109 -195 -150 0
86 196 -167 0
156 154 2 0
44 -84 -6 0
7 -40 -175 0
-123 -155 -158 0
32 132 -135 0
76 106 -36 0
126 176 85 0
4 107 -67 0
31 161 -87 0
96 -94 -182 0
-8 -48 -164 0
182 129 -127 0
-54 -141 -196 0
121 -199 -67 0
-11 -98 -24 0
187 113 -17 0
2 160 44 0
53 158 -120 0
22 110 94 0
144 39 -187 0
170 -198 -126 0
69 -138 -120 0
99 194 132 0
-46 -91 -31 0
155 -70 -129 0
165 124 -127 0
177 -110 -159 0
160 25 -38 0
199 140 -6 0
125 85 -45 0
179 -86 -148 0
85 91 -16 0
186 151 -179 0
197 -31 -94 0
45 -183 -104 0
66 -2 -169 0
35 71 -103 0
22 -158 -42 0
167 29 -106 0
101 11 -176 0
149 -107 -1 0
-146 -182 -159 0
7 63 128 0
86 61 -149 0
141 -1 -102 0
197 64 -200 0
168 70 -137 0
63 -150 -178 0
169 -21 -20 0
159 -2 -185 0
153 97 -191 0
91 47 21 0
1 -87 -52 0
-38 -29 -125 0
131 -11 -167 0
151 -199 -144 0
97 165 -45 0
26 12 -148 0
47 87 -175 0
177 6 -100 0
71 122 -62 0
-139 -103 -97 0
155 -181 -138 0
176 133 -61 0
5 189 161 0
-53 -163 -129 0
-77 -200 -15 0
69 3 -127 0
94 -60 -27 0
190 59 -185 0
181 155 -175 0
77 198 173 0
41 -66 -180 0
3 -1 -19 0
-117 -172 -72 0
142 193 99 0
3 55 -104 0
-198 -74 -27 0
136 64 103 0
109 25 -163 0
191 -81 -155 0
195 -38 -75 0
91 -98 -111 0
181 -33 -125 0
16 -121 -127 0
131 -179 -42 0
125 -31 -33 0
100 166 14 0
85 187 -74 0
55 74 -95 0
94 -69 -45 0
99 -181 -12 0
64 52 -38 0
187 -125 -9 0
-153 -113 -58 0
35 169 -26 0
26 -153 -170 0
49 4 -160 0
175 -168 -53 0
28 -9 -166 0
-23 -156 -130 0
56 143 -52 0
178 -18 -159 0
96 93 123 0
83 -89 -199 0
85 -181 -68 0
191 -7 -24 0
153 -75 -64 0
169 83 -146 0
85 -54 -120 0
-88 -167 -124 0
96 17 -88 0
-192 -43 -55 0
16 -147 -129 0
118 71 -109 0
177 55 -180 0
83 194 -157 0
-172 -51 -192 0
98 -148 -110 0
-27 -98 -39 0
199 139 -18 0
157 66 -118 0
91 -56 -18 0
3 164 98 0
106 50 -137 0
80 167 -51 0
196 184 -195 0
190 141 176 0
18 73 -12 0
114 120 23 0
96 -158 -169 0
-69 -47 -113 0
141 117 -103 0
83 -189 -170 0
-3 -87 -34 0
106 -163 -153 0
21 141 29 0
143 -32 -49 0
44 -32 -122 0
28 70 -89 0
121 2 -6 0
18 -168 -6 0
157 74 -14 0
41 131 99 0
109 102 -74 0
-82 -48 -151 0
-104 -178 -113 0
181 103 -75 0
88 -73 -146 0
142 42 -159 0
-175 -150 -197 0
58 52 -179 0
-62 -193 -61 0
178 9 -16 0
142 68 121 0
123 139 19 0
200 44 -46 0
118 189 -116 0
173 72 -46 0
121 -101 -3 0
182 163 -102 0
165 -58 -199 0
53 9 -200 0
8 176 130 0
-114 -124 -61 0
54 -61 -19 0
-163 -174 -108 0
66 50 167 0
26 186 -93 0
149 171 -117 0
25 24 -163 0
145 -67 -192 0
53 107 -17 0
109 -34 -171 0
94 114 -146 0
193 -31 -47 0
198 -25 -165 0
35 -26 -98 0
47 165 -121 0
80 67 -24 0
-93 -198 -133 0
90 -10 -161 0
9 -97 -194 0
-47 -90 -60 0
44 -18 -193 0
8 -186 -188 0
70 74 -51 0
136 -163 -6 0
1 123 36 0
70 69 -177 0
190 -144 -127 0
82 109 86 0
66 86 -170 0
4 64 28 0
107 -116 -80 0
19 -125 -176 0
91 158 15 0
78 -97 -7 0
153 -54 -132 0
87 171 -67 0
149 174 -86 0
26 106 -154 0
52 -192 -194 0
101 130 -13 0
112 104 -163 0
175 -200 -30 0
90 -131 -76 0
147 -168 -173 0
130 42 67 0
135 40 -25 0
130 -88 -52 0
141 56 -200 0
85 -57 -95 0
-5 -76 -184 0
127 -189 -64 0
74 141 -69 0
6 -37 -115 0
180 -91 -68 0
19 -33 -35 0
94 -15 -102 0
102 187 -32 0
65 3 -36 0
75 38 184 0
-107 -126 -88 0
199 1 -60 0
-36 -107 -39 0
89 -22 -32 0
71 173 69 0
158 -67 -76 0
14 -59 -46 0
55 40 -81 0
147 -71 -16 0
3 191 18 0
162 -76 -167 0
132 183 27 0
100 -95 -184 0
24 -180 -188 0
121 14 142 0
-6 -129 -91 0
-4 -44 -195 0
5 83 -92 0
35 -181 -126 0
37 104 -61 0
197 135 -184 0
62 -175 -186 0
50 132 -150 0
-51 -135 -193 0
111 4 89 0
3 180 -110 0
165 102 39 0
38 93 -95 0
80 128 -28 0
-64 -41 -180 0
43 60 2 0
133 -188 -125 0
-168 -170 -5 0
168 116 157 0
181 -81 -73 0
65 -102 -153 0
159 -137 -80 0
164 10 162 0
198 -186 -35 0
150 48 -77 0
108 -79 -34 0
23 -11 -100 0
110 -34 -103 0
119 105 200 0
66 -37 -177 0
14 -58 -64 0
97 39 -57 0
107 52 -144 0
165 87 -90 0
181 96 36 0
98 5 -135 0
-55 -4 -136 0
20 -6 -3 0
53 -177 -89 0
55 16 -16 0
39 -25 -179 0
23 33 -142 0
150 -159 -157 0
185 -144 -200 0
