c s2_mpfx_neg_PSO
p cnf 200 870
-166 -120 -77 0
37 -35 -123 0
4 57 -136 0
145 1 -105 0
128 22 -185 0
-114 -10 -83 0
151 -53 -167 0
72 96 -40 0
194 194 -41 0
131 -153 -9 0
45 49 110 0
181 -62 -118 0
167 -45 -113 0
-86 -8 -93 0
76 -54 -19 0
3 38 -60 0
144 40 162 0
81 10 -106 0
-187 -190 -37 0
47 133 -69 0
118 141 -100 0
64 -8 -162 0
158 -19 -89 0
11 54 117 0
186 -171 -146 0
119 117 163 0
42 -9 -175 0
108 81 -3 0
36 -170 -69 0
-128 -103 -144 0
-113 -50 -58 0
5 53 -171 0
30 -44 -58 0
75 -39 -89 0
109 -88 -71 0
150 28 46 0
59 -4 -68 0
86 -198 -189 0
38 156 -158 0
153 157 112 0
42 72 -171 0
21 -69 -118 0
171 152 -175 0
118 -22 -48 0
190 -154 -166 0
110 -182 -10 0
96 112 -66 0
161 -113 -126 0
31 113 -103 0
140 -42 -90 0
-123 -141 -175 0
61 68 -136 0
71 169 -146 0
15 -37 -138 0
-32 -118 -109 0
137 -178 -152 0
101 -88 -33 0
170 167 -14 0
93 156 -70 0
184 -77 -13 0
120 -131 -47 0
20 -89 -85 0
55 14 -172 0
171 110 147 0
9 -99 -133 0
126 -45 -179 0
-33 -151 -84 0
138 -84 -170 0
58 84 -138 0
70 15 -139 0
193 109 -20 0
115 -44 -24 0
161 -106 -173 0
62 125 -125 0
8 -189 -200 0
144 -6 -118 0
72 143 -134 0
121 -68 -111 0
60 1 95 0
38 81 -88 0
91 -14 -118 0
60 154 -156 0
26 -194 -153 0
92 -162 -43 0
181 13 -101 0
141 -16 -95 0
153 17 -39 0
17 164 113 0
60 -136 -182 0
-137 -157 -103 0
148 110 -52 0
95 -185 -4 0
158 -35 -120 0
6 178 -58 0
17 -24 -104 0
-142 -128 -112 0
33 -136 -88 0
105 -181 -15 0
136 53 -160 0
39 177 31 0
174 -67 -123 0
182 129 -141 0
167 36 -5 0
32 8 -40 0
120 123 -33 0
130 158 -166 0
129 -164 -177 0
25 -89 -111 0
48 -111 -127 0
174 122 -98 0
181 -124 -163 0
50 164 -74 0
143 -27 -45 0
-20 -48 -194 0
153 64 -112 0
155 153 -125 0
79 -74 -145 0
-109 -58 -41 0
103 112 -139 0
142 116 -81 0
187 -39 -89 0
8 196 -20 0
80 118 -37 0
187 188 -142 0
197 60 -5 0
80 33 -71 0
92 11 74 0
14 -175 -145 0
50 27 190 0
130 -39 -85 0
143 43 -26 0
84 -190 -50 0
119 -199 -53 0
94 -124 -61 0
199 52 -157 0
196 78 -107 0
95 -190 -131 0
51 185 28 0
88 -62 -41 0
195 158 -151 0
179 -13 -92 0
180 -103 -112 0
-189 -99 -103 0
17 33 190 0
40 35 -62 0
53 36 -47 0
15 -34 -52 0
2 66 125 0
178 -7 -45 0
178 59 58 0
177 -70 -103 0
-191 -16 -86 0
145 18 -73 0
68 -20 -157 0
83 68 -74 0
166 127 -120 0
-48 -73 -191 0
1 148 -155 0
44 148 -68 0
111 164 -192 0
156 -18 -128 0
58 69 -31 0
26 -165 -23 0
27 55 -111 0
97 64 -170 0
38 -25 -171 0
190 -48 -138 0
55 113 -145 0
192 -156 -179 0
141 -78 -104 0
69 28 -98 0
129 52 -197 0
-91 -123 -130 0
55 -175 -27 0
134 196 -44 0
78 165 -173 0
137 -93 -92 0
65 29 -167 0
107 -101 -37 0
-128 -64 -184 0
104 179 -39 0
161 117 -129 0
34 181 -80 0
28 162 -118 0
193 120 -183 0
64 -197 -122 0
46 -51 -23 0
45 90 -173 0
-75 -35 -148 0
173 15 181 0
-128 -62 -168 0
165 -106 -104 0
58 13 -71 0
-91 -86 -181 0
123 -179 -36 0
183 23 -116 0
122 -88 -93 0
183 -104 -84 0
158 125 -200 0
182 26 -48 0
97 -121 -90 0
60 25 -93 0
94 -72 -1 0
161 59 -33 0
121 -186 -151 0
45 -61 -38 0
-183 -43 -45 0
105 -51 -117 0
25 -82 -174 0
94 174 -77 0
-79 -98 -175 0
156 -39 -150 0
102 178 -115 0
17 87 -60 0
198 71 -3 0
74 -21 -10 0
28 103 -116 0
-151 -180 -27 0
35 -188 -82 0
148 99 -113 0
-104 -195 -147 0
-53 -75 -115 0
85 -188 -60 0
63 49 -102 0
179 192 -140 0
139 -54 -8 0
22 140 3 0
-42 -125 -127 0
-30 -11 -178 0
136 27 -140 0
-159 -126 -66 0
30 -98 -110 0
184 41 -86 0
66 63 -41 0
191 47 -70 0
31 148 -16 0
62 -38 -5 0
114 36 121 0
100 159 -55 0
74 -7 -136 0
136 49 -79 0
19 142 -11 0
-179 -122 -102 0
54 -36 -98 0
200 92 102 0
-75 -13 -107 0
177 -131 -67 0
163 117 -58 0
17 74 -67 0
66 -144 -124 0
45 24 -18 0
165 -190 -57 0
196 191 109 0
74 15 125 0
89 90 -98 0
168 119 -43 0
55 -134 -16 0
200 -156 -125 0
60 82 -195 0
192 -21 -142 0
176 -185 -52 0
72 109 -51 0
36 -124 -156 0
155 -85 -1 0
175 145 178 0
-95 -115 -186 0
134 72 -112 0
107 135 -114 0
117 51 -139 0
67 49 -61 0
156 170 -107 0
131 -165 -140 0
65 116 102 0
186 -81 -143 0
29 136 -77 0
53 174 -198 0
180 146 19 0
147 -62 -28 0
129 100 47 0
28 125 -25 0
168 161 -175 0
84 167 -193 0
36 189 -98 0
143 108 -114 0
165 -179 -19 0
34 -112 -191 0
200 -194 -91 0
194 -137 -44 0
139 58 -182 0
-1 -120 -48 0
89 -149 -160 0
148 -161 -88 0
92 -175 -74 0
-95 -47 -103 0
119 -2 -81 0
1 -109 -111 0
4 131 -3 0
23 -85 -117 0
-99 -42 -141 0
59 -103 -175 0
9 -98 -171 0
25 188 -22 0
-195 -99 -23 0
33 -77 -161 0
20 172 41 0
109 -79 -164 0
34 129 -49 0
16 42 -173 0
111 9 -48 0
-125 -80 -33 0
91 81 -41 0
-68 -97 -142 0
172 77 -24 0
-15 -147 -103 0
141 98 -132 0
121 21 -144 0
-13 -15 -17 0
11 185 -127 0
48 -78 -99 0
20 32 109 0
108 -12 -155 0
42 53 -58 0
9 -112 -161 0
71 120 -137 0
37 41 64 0
124 169 -52 0
4 74 123 0
1 14 85 0
46 121 179 0
174 99 65 0
150 88 -197 0
142 -161 -153 0
72 -154 -53 0
129 32 2 0
149 -102 -155 0
-42 -51 -197 0
171 9 -66 0
183 -107 -185 0
124 119 -30 0
6 22 -75 0
68 68 -65 0
50 -128 -168 0
184 -182 -120 0
100 -89 -77 0
-171 -200 -139 0
102 -186 -141 0
105 164 -99 0
175 50 95 0
79 -35 -58 0
53 -123 -113 0
173 -5 -52 0
91 -166 -103 0
64 23 -87 0
-169 -24 -156 0
136 152 -121 0
25 -73 -52 0
61 98 -23 0
162 -51 -39 0
10 -115 -74 0
-107 -112 -11 0
5 161 -38 0
178 -159 -10 0
27 46 -120 0
194 -28 -148 0
137 109 -60 0
144 -123 -183 0
68 -24 -117 0
125 -117 -18 0
59 -79 -191 0
-149 -132 -183 0
93 -35 -130 0
19 83 -61 0
146 50 -51 0
63 197 74 0
106 194 -115 0
198 -139 -164 0
133 124 -59 0
170 180 -54 0
123 8 -166 0
14 93 -127 0
156 199 -195 0
-134 -2 -171 0
93 70 44 0
97 36 -126 0
-84 -50 -151 0
59 -115 -124 0
-31 -195 -40 0
77 -178 -85 0
56 124 -80 0
194 174 -128 0
126 -9 -161 0
60 -121 -12 0
184 -144 -48 0
25 -108 -64 0
38 1 -10 0
61 -149 -152 0
103 67 -195 0
129 -130 -138 0
173 192 -193 0
168 -1 -197 0
-104 -107 -167 0
-76 -117 -130 0
200 -62 -76 0
2 -60 -24 0
1 101 -158 0
-40 -8 -58 0
181 66 21 0
23 -42 -22 0
168 -82 -66 0
70 -92 -163 0
-10 -67 -185 0
121 130 -23 0
143 -84 -140 0
94 -35 -63 0
50 195 58 0
72 -59 -140 0
167 -170 -83 0
197 70 -146 0
34 -67 -133 0
62 -37 -48 0
132 1 42 0
27 92 162 0
66 73 -174 0
200 118 -134 0
141 169 126 0
111 21 76 0
10 176 -18 0
57 44 -141 0
183 159 -59 0
105 -148 -24 0
142 166 95 0
171 20 -140 0
170 4 38 0
152 55 -97 0
134 64 -179 0
45 -136 -66 0
156 3 27 0
12 -124 -159 0
96 -98 -91 0
17 10 199 0
156 19 -97 0
48 14 -22 0
141 170 -27 0
188 -130 -140 0
140 -126 -22 0
120 122 -60 0
167 -31 -149 0
-108 -186 -49 0
56 -183 -67 0
27 -104 -176 0
107 -112 -136 0
-175 -63 -112 0
7 -25 -27 0
4 -8 -60 0
126 120 -70 0
27 -112 -73 0
187 85 143 0
142 -139 -20 0
122 58 62 0
2 -171 -144 0
95 61 182 0
106 -124 -193 0
71 -58 -28 0
-156 -91 -52 0
76 25 -89 0
76 57 -65 0
178 87 -104 0
139 56 -162 0
49 111 85 0
27 84 -154 0
116 68 -121 0
16 25 -79 0
44 -108 -168 0
100 -165 -2 0
-13 -47 -188 0
155 -182 -71 0
50 -48 -111 0
-109 -154 -157 0
60 104 -113 0
188 71 -136 0
145 -109 -159 0
141 -136 -62 0
101 32 -21 0
151 -140 -77 0
179 53 -26 0
27 35 -162 0
70 141 -187 0
135 11 -106 0
81 102 -11 0
101 86 -113 0
54 -16 -30 0
200 146 -198 0
52 39 29 0
79 175 -96 0
195 200 -200 0
-108 -156 -25 0
106 -49 -91 0
160 152 185 0
92 -18 -68 0
16 97 -147 0
154 160 98 0
61 166 -11 0
-90 -24 -30 0
162 -37 -175 0
71 152 -188 0
114 -47 -150 0
138 133 80 0
101 -164 -54 0
192 -189 -160 0
11 -163 -39 0
68 100 -75 0
155 196 -138 0
-114 -189 -125 0
91 -144 -94 0
-152 -165 -130 0
98 18 172 0
134 -10 -112 0
159 -139 -43 0
30 -107 -102 0
105 -111 -126 0
149 -140 -134 0
93 -116 -67 0
30 40 6 0
52 -17 -110 0
167 129 -125 0
88 51 12 0
-182 -162 -164 0
2 -148 -185 0
86 192 -100 0
-165 -111 -59 0
143 -149 -95 0
85 46 27 0
-137 -98 -195 0
17 -152 -139 0
172 -120 -117 0
195 161 -25 0
20 35 97 0
-160 -109 -145 0
111 60 -113 0
165 -57 -166 0
28 82 -81 0
77 21 -151 0
36 -73 -150 0
125 22 18 0
2 111 22 0
159 -20 -105 0
-68 -138 -167 0
32 -27 -65 0
14 -146 -164 0
56 173 -43 0
25 198 -47 0
124 138 177 0
83 -60 -57 0
76 53 -146 0
157 69 68 0
133 -92 -41 0
34 -9 -126 0
44 -68 -132 0
1 188 44 0
193 88 173 0
91 -135 -139 0
55 -42 -17 0
51 -19 -195 0
110 -187 -46 0
37 156 -98 0
58 -153 -40 0
145 -169 -81 0
146 -56 -49 0
182 80 -18 0
-147 -173 -146 0
191 115 -51 0
182 125 99 0
34 -97 -102 0
137 -152 -154 0
1 -106 -37 0
107 -126 -16 0
144 -150 -145 0
2 94 -118 0
99 180 109 0
2 -3 -180 0
67 155 154 0
78 -4 -83 0
186 -104 -194 0
151 76 -147 0
178 167 11 0
37 -187 -157 0
36 47 -20 0
56 189 -101 0
5 -181 -93 0
200 182 -94 0
125 62 -186 0
39 114 -55 0
-84 -102 -135 0
11 8 -59 0
188 30 -125 0
19 -66 -26 0
1 -46 -136 0
137 50 -124 0
75 194 -90 0
2 88 -186 0
126 -159 -87 0
25 36 168 0
97 129 -52 0
-159 -10 -10 0
3 -161 -160 0
160 103 -79 0
151 158 105 0
-91 -45 -30 0
115 192 -189 0
181 -52 -38 0
198 -106 -120 0
127 111 -76 0
166 55 -152 0
149 -126 -199 0
84 -152 -174 0
187 90 80 0
75 191 -135 0
170 153 -19 0
34 41 -77 0
39 105 -13 0
123 -192 -127 0
38 -42 -66 0
176 -129 -112 0
89 2 -14 0
54 -17 -57 0
81 -152 -81 0
135 32 -171 0
127 1 -109 0
67 66 -114 0
176 53 -21 0
168 56 -171 0
71 117 105 0
184 52 -168 0
15 -11 -17 0
115 105 158 0
39 190 131 0
176 163 -96 0
17 -136 -177 0
-85 -165 -194 0
27 -162 -83 0
179 37 -127 0
46 128 -24 0
10 71 -35 0
90 8 -154 0
70 89 -40 0
70 6 -182 0
164 118 11 0
36 62 -90 0
64 -124 -35 0
38 78 99 0
85 18 -124 0
32 80 -157 0
73 101 -111 0
198 -57 -130 0
173 154 145 0
17 31 -140 0
159 -146 -92 0
189 14 -134 0
73 -50 -151 0
95 -192 -84 0
87 -145 -37 0
59 -162 -183 0
136 -134 -13 0
12 -107 -192 0
198 -116 -198 0
66 180 -133 0
74 66 -107 0
133 -78 -67 0
134 79 132 0
77 22 -47 0
147 -52 -38 0
146 83 -171 0
137 -105 -185 0
124 -97 -196 0
37 -47 -133 0
132 14 -132 0
57 33 -121 0
53 62 -164 0
61 42 -24 0
35 143 -168 0
119 75 -11 0
-131 -39 -122 0
-12 -52 -93 0
89 -53 -187 0
147 190 -10 0
-7 -121 -132 0
189 108 -25 0
21 32 -59 0
174 -174 -128 0
156 -103 -148 0
20 159 -94 0
92 -4 -75 0
81 49 167 0
-177 -128 -93 0
104 -189 -90 0
84 161 40 0
-193 -76 -150 0
121 -94 -164 0
142 162 -163 0
21 53 170 0
119 143 -95 0
52 -17 -177 0
-138 -135 -127 0
192 -144 -146 0
28 171 -112 0
78 -22 -198 0
154 -159 -102 0
97 -118 -76 0
122 78 -100 0
149 116 -64 0
108 24 -191 0
165 169 -110 0
-17 -169 -86 0
49 179 -94 0
-40 -118 -85 0
19 21 -180 0
36 10 -148 0
187 118 -128 0
189 114 -123 0
32 99 -127 0
85 62 -195 0
80 175 -7 0
152 161 -112 0
48 -39 -91 0
168 174 -91 0
122 125 -10 0
178 175 191 0
184 21 89 0
131 171 -6 0
188 41 -138 0
167 -119 -76 0
180 -82 -66 0
106 119 -12 0
-81 -84 -165 0
82 126 -29 0
131 -125 -148 0
64 -85 -75 0
128 24 42 0
82 56 -187 0
28 -61 -118 0
172 33 -55 0
107 190 -56 0
29 156 26 0
-51 -91 -4 0
109 -77 -170 0
195 -68 -24 0
5 131 -173 0
7 -141 -189 0
69 96 -119 0
-101 -153 -129 0
40 -107 -168 0
41 -63 -185 0
92 96 184 0
81 -102 -113 0
120 -37 -166 0
71 196 -193 0
97 -140 -191 0
-34 -56 -92 0
155 136 -135 0
138 -22 -138 0
30 -136 -125 0
64 -170 -196 0
68 -53 -57 0
181 12 -194 0
145 -130 -172 0
199 166 -56 0
63 20 -142 0
90 -45 -130 0
70 167 -42 0
121 -158 -112 0
111 -117 -183 0
63 -78 -52 0
26 58 -74 0
6 -186 -171 0
128 114 -143 0
172 127 -10 0
-149 -196 -175 0
162 172 -26 0
125 75 -139 0
150 75 188 0
-63 -23 -190 0
140 37 -142 0
75 -174 -108 0
129 -53 -151 0
-84 -75 -167 0
28 -173 -152 0
146 86 -155 0
158 40 31 0
-32 -94 -55 0
160 -139 -184 0
-66 -113 -42 0
69 162 -107 0
177 150 -141 0
172 177 -60 0
81 -141 -75 0
12 126 -169 0
8 142 -133 0
14 -60 -164 0
112 -133 -43 0
78 -76 -119 0
99 -188 -94 0
41 190 -39 0
163 -64 -89 0
195 -131 -122 0
179 54 -123 0
90 -57 -173 0
114 122 -23 0
193 -102 -184 0
47 -102 -158 0
78 -54 -148 0
138 36 116 0
-19 -126 -83 0
133 123 167 0
106 -163 -199 0
-187 -52 -155 0
175 -144 -164 0
111 -61 -149 0
198 129 -169 0
55 -170 -200 0
186 189 56 0
38 -107 -89 0
184 98 142 0
108 -74 -103 0
-130 -20 -99 0
130 153 -119 0
63 -92 -70 0
122 -69 -105 0
33 129 -38 0
33 163 -57 0
54 -57 -188 0
31 71 -91 0
94 -43 -59 0
175 28 -199 0
194 98 -200 0
36 124 61 0
107 -110 -102 0
106 -97 -26 0
9 137 -144 0
117 135 43 0
197 151 -198 0
159 -92 -159 0
106 -27 -117 0
166 133 199 0
166 134 -125 0
63 8 -76 0
-121 -135 -73 0
4 102 -159 0
47 84 -84 0
70 -26 -13 0
102 191 116 0
114 -7 -43 0
37 5 -152 0
76 196 90 0
194 -70 -193 0
107 162 197 0
-76 -116 -120 0
113 99 142 0
136 16 170 0
27 -37 -91 0
69 -151 -53 0
193 -23 -198 0
21 153 -158 0
117 -23 -150 0
136 -49 -101 0
116 -114 -52 0
99 34 -12 0
46 71 -127 0
44 171 -30 0
84 92 -60 0
19 71 -115 0
