c s2_mpfx_log_TripleCMA
p cnf 200 819
124 -135 -139 0
165 -191 -52 0
-92 -35 -121 0
101 150 -29 0
98 64 120 0
197 79 -130 0
-113 -37 -80 0
73 92 -124 0
90 -180 -73 0
157 -85 -60 0
63 23 132 0
149 -72 -1 0
91 143 58 0
66 -96 -120 0
160 -56 -127 0
-114 -43 -81 0
99 90 -15 0
92 -100 -145 0
93 126 155 0
123 -144 -197 0
156 -200 -43 0
175 -117 -142 0
198 -91 -20 0
13 67 199 0
39 59 -91 0
30 47 -42 0
65 -125 -153 0
182 -98 -154 0
82 -35 -134 0
57 -191 -171 0
75 -187 -25 0
133 176 46 0
54 41 -138 0
159 10 -112 0
157 -144 -16 0
77 183 -53 0
-120 -173 -40 0
195 -42 -167 0
105 32 -197 0
2 138 -36 0
111 153 173 0
-2 -53 -95 0
3 89 165 0
105 190 -75 0
-5 -10 -192 0
176 -106 -198 0
-40 -87 -111 0
48 -169 -84 0
11 43 -117 0
95 85 178 0
185 103 -95 0
190 37 118 0
151 -91 -25 0
99 182 162 0
183 136 -38 0
67 175 -65 0
173 137 -6 0
26 182 7 0
79 -177 -159 0
-145 -119 -138 0
193 47 -80 0
42 -28 -160 0
63 36 11 0
40 180 -92 0
66 -138 -131 0
138 35 -18 0
165 46 -65 0
111 -127 -151 0
3 67 136 0
135 163 -129 0
110 -153 -15 0
76 -172 -15 0
187 4 -188 0
28 -31 -121 0
-71 -26 -135 0
38 30 -118 0
129 -181 -150 0
120 6 -144 0
-157 -76 -1 0
100 172 -105 0
46 111 -122 0
90 83 153 0
64 43 -178 0
184 -196 -132 0
42 138 -19 0
170 -13 -7 0
57 16 95 0
112 41 -165 0
46 -75 -41 0
149 -196 -15 0
-104 -1 -10 0
159 48 8 0
82 -185 -130 0
52 188 -9 0
64 25 -51 0
35 46 157 0
-126 -70 -168 0
2 -167 -100 0
5 84 82 0
183 122 -83 0
107 22 156 0
22 -8 -97 0
77 12 -157 0
114 -178 -94 0
118 112 -192 0
-112 -111 -155 0
153 106 -147 0
23 -77 -48 0
85 -44 -63 0
122 73 -118 0
37 -76 -98 0
118 -107 -20 0
66 100 20 0
35 -77 -152 0
5 -179 -188 0
21 146 -177 0
118 -127 -166 0
78 -122 -85 0
-70 -40 -17 0
144 41 11 0
65 -123 -147 0
108 55 -54 0
24 84 157 0
40 -196 -65 0
-195 -75 -14 0
91 68 -51 0
-36 -184 -167 0
69 185 -187 0
97 191 151 0
144 -170 -18 0
112 95 -15 0
151 57 132 0
79 -32 -153 0
87 27 129 0
60 181 -137 0
45 4 -137 0
-23 -5 -101 0
15 -182 -93 0
76 111 95 0
-181 -63 -36 0
132 -80 -52 0
130 99 -177 0
54 -15 -18 0
19 -97 -30 0
193 32 -98 0
68 186 -61 0
19 -152 -154 0
100 192 -182 0
20 129 190 0
178 -177 -142 0
139 -50 -36 0
198 65 -145 0
94 183 68 0
94 4 -36 0
175 -184 -188 0
54 -35 -144 0
107 30 -132 0
33 -138 -121 0
135 168 -149 0
90 92 123 0
15 137 -135 0
47 25 32 0
188 73 -184 0
-101 -9 -78 0
-194 -131 -183 0
137 -54 -109 0
196 -31 -37 0
71 -4 -187 0
-160 -12 -67 0
-23 -117 -170 0
49 -96 -100 0
93 46 -25 0
131 -119 -134 0
-8 -170 -45 0
-145 -125 -24 0
126 -168 -135 0
136 89 -139 0
130 78 105 0
111 192 -177 0
158 -148 -30 0
145 -146 -142 0
197 -37 -184 0
-97 -5 -183 0
104 -159 -168 0
39 185 -17 0
-71 -34 -88 0
2 122 193 0
31 23 -140 0
-94 -79 -106 0
72 76 16 0
115 -137 -24 0
80 -55 -72 0
24 35 -47 0
180 67 -123 0
98 128 -141 0
2 -110 -121 0
93 -10 -29 0
125 -5 -33 0
38 -116 -143 0
19 -45 -151 0
64 37 112 0
108 171 -94 0
31 -11 -25 0
199 -13 -162 0
121 150 -82 0
149 -31 -135 0
16 108 -141 0
70 76 -68 0
110 -32 -118 0
-109 -84 -110 0
52 -34 -99 0
-155 -168 -76 0
177 93 -123 0
25 16 -127 0
-152 -81 -18 0
198 48 -86 0
81 56 -126 0
154 80 -120 0
54 -85 -180 0
102 -3 -23 0
131 -186 -181 0
122 109 -176 0
194 -20 -5 0
195 -85 -140 0
137 -51 -55 0
184 140 -163 0
181 10 -128 0
-15 -71 -74 0
-119 -55 -100 0
27 -118 -83 0
-52 -144 -40 0
186 28 -133 0
163 -108 -187 0
-39 -64 -164 0
172 85 -67 0
-131 -34 -23 0
-158 -2 -58 0
35 51 -183 0
90 -82 -101 0
49 -102 -170 0
191 64 -17 0
36 -150 -148 0
82 -109 -108 0
58 -32 -66 0
80 12 -128 0
57 167 -114 0
-183 -33 -31 0
140 47 -145 0
185 -40 -46 0
91 96 -136 0
88 -186 -129 0
22 -76 -151 0
79 -149 -38 0
96 120 -1 0
129 -59 -41 0
88 -1 -198 0
140 193 -42 0
178 192 184 0
142 -133 -106 0
34 -199 -88 0
-103 -44 -116 0
14 67 -22 0
147 -89 -191 0
123 28 -105 0
-177 -118 -59 0
34 174 -138 0
155 137 -151 0
43 172 198 0
-171 -132 -167 0
113 193 -106 0
129 -187 -146 0
154 39 -183 0
-16 -87 -102 0
62 -143 -51 0
13 -182 -176 0
-110 -114 -99 0
31 155 -101 0
39 -195 -107 0
38 80 108 0
18 87 -168 0
-125 -148 -178 0
34 -139 -43 0
35 83 -189 0
54 69 -30 0
-16 -8 -64 0
74 82 -36 0
87 -195 -97 0
-30 -22 -13 0
161 -103 -68 0
26 -162 -149 0
33 -41 -130 0
187 117 169 0
60 190 -156 0
7 -158 -97 0
189 35 -189 0
86 195 184 0
38 -136 -65 0
158 135 149 0
-190 -187 -42 0
158 185 -189 0
14 18 -49 0
178 49 -55 0
34 163 -189 0
136 -149 -119 0
97 -82 -113 0
123 -57 -4 0
19 -69 -163 0
103 -185 -36 0
68 69 -153 0
195 46 -151 0
95 -84 -153 0
46 18 -170 0
25 9 37 0
1 -140 -124 0
131 60 -182 0
44 16 130 0
83 -116 -19 0
10 -161 -94 0
-109 -15 -31 0
147 -11 -24 0
17 -48 -31 0
13 -18 -84 0
64 -175 -7 0
30 119 12 0
151 24 -6 0
77 -173 -153 0
44 -175 -19 0
11 110 -126 0
198 -14 -4 0
38 -164 -130 0
173 141 -110 0
50 -47 -133 0
60 -27 -74 0
165 23 105 0
173 -139 -109 0
99 -10 -126 0
36 -78 -121 0
39 -164 -16 0
109 -165 -102 0
65 -154 -179 0
56 138 -186 0
193 -47 -26 0
132 170 46 0
177 -187 -95 0
94 61 -187 0
-158 -20 -23 0
174 132 -25 0
-35 -117 -186 0
83 45 -143 0
118 167 -51 0
195 -18 -6 0
90 182 -8 0
173 -153 -21 0
60 96 194 0
180 -152 -46 0
88 15 137 0
186 -149 -109 0
115 150 -81 0
66 5 -40 0
185 -68 -181 0
142 -139 -66 0
-74 -2 -39 0
87 128 1 0
9 17 -63 0
-153 -98 -175 0
128 28 -194 0
-26 -123 -176 0
173 124 -156 0
138 181 42 0
25 44 -185 0
173 96 -8 0
86 -180 -52 0
71 168 75 0
104 28 -200 0
105 26 -17 0
170 107 -110 0
172 -179 -102 0
-40 -82 -119 0
83 -20 -96 0
-52 -75 -106 0
27 -144 -25 0
15 46 197 0
58 -133 -116 0
167 11 -54 0
110 -58 -48 0
187 -45 -87 0
179 -78 -91 0
147 -96 -6 0
174 124 171 0
163 147 66 0
35 -90 -104 0
18 101 -185 0
132 65 47 0
89 42 50 0
-138 -108 -70 0
7 147 -86 0
171 20 -110 0
32 -17 -9 0
18 -145 -142 0
60 63 -74 0
84 -27 -110 0
193 107 72 0
120 -194 -115 0
74 -192 -144 0
171 168 -165 0
-77 -12 -40 0
158 -155 -34 0
6 -117 -135 0
123 -1 -53 0
175 -104 -40 0
125 59 105 0
36 -86 -156 0
-168 -156 -81 0
74 23 -5 0
-186 -67 -40 0
91 -170 -74 0
154 -145 -177 0
194 118 -86 0
186 9 -134 0
10 135 -193 0
151 25 -59 0
77 34 158 0
59 -64 -93 0
60 -113 -192 0
148 183 -156 0
162 -180 -27 0
56 49 177 0
61 -2 -199 0
144 87 -127 0
-91 -21 -59 0
50 1 13 0
115 146 -109 0
113 -157 -117 0
22 -164 -63 0
189 188 -4 0
128 141 113 0
165 137 200 0
71 -191 -41 0
69 -17 -56 0
113 70 -137 0
23 -23 -118 0
114 90 -97 0
116 111 -43 0
158 159 83 0
9 -122 -115 0
34 186 -107 0
126 73 185 0
75 -30 -104 0
13 162 -1 0
129 83 -77 0
117 110 -124 0
-180 -194 -21 0
-129 -40 -148 0
140 56 -130 0
129 138 -58 0
184 139 -166 0
113 23 171 0
-51 -67 -14 0
-149 -113 -172 0
36 38 -33 0
125 -89 -37 0
161 131 -120 0
132 -36 -116 0
17 -146 -146 0
175 -134 -74 0
156 -28 -181 0
10 -180 -128 0
-164 -91 -182 0
-101 -72 -75 0
156 146 166 0
26 -98 -184 0
184 9 -70 0
83 79 199 0
131 -189 -39 0
-147 -59 -130 0
69 -89 -18 0
198 148 77 0
-154 -67 -150 0
12 55 -64 0
10 126 -169 0
117 -23 -117 0
81 -172 -138 0
194 200 -71 0
132 -19 -85 0
161 191 -51 0
149 179 -100 0
68 142 49 0
199 116 -50 0
102 92 -128 0
125 -141 -96 0
196 -188 -178 0
152 -34 -19 0
51 -21 -77 0
-71 -165 -163 0
114 183 -143 0
170 -65 -66 0
1 -127 -90 0
88 -36 -140 0
145 -78 -77 0
132 19 50 0
-140 -93 -69 0
85 192 -50 0
62 101 -175 0
-83 -71 -99 0
141 -90 -41 0
140 -142 -107 0
47 70 193 0
156 179 -95 0
149 38 -183 0
1 145 -155 0
65 86 108 0
106 108 -142 0
81 63 115 0
-24 -74 -95 0
72 67 97 0
-127 -20 -136 0
104 -129 -169 0
-139 -114 -131 0
39 154 111 0
33 96 8 0
-8 -187 -9 0
37 97 -197 0
23 -139 -64 0
33 31 -51 0
178 82 -13 0
81 -6 -3 0
53 -182 -43 0
145 -120 -199 0
118 -140 -90 0
19 -191 -187 0
9 158 -179 0
-98 -84 -171 0
116 164 -136 0
138 50 -44 0
157 -36 -122 0
182 111 -68 0
-69 -5 -136 0
179 -90 -109 0
12 -92 -125 0
188 -92 -167 0
162 171 -191 0
130 13 -18 0
155 -172 -157 0
79 -16 -101 0
59 -66 -173 0
62 -149 -26 0
-62 -74 -168 0
133 -162 -54 0
186 65 -84 0
149 147 155 0
63 91 -182 0
154 44 -41 0
-69 -184 -76 0
195 28 -145 0
164 160 -113 0
43 187 -51 0
97 -60 -175 0
130 150 -191 0
92 -26 -75 0
54 89 186 0
99 -14 -152 0
145 90 -131 0
25 114 -8 0
-69 -36 -138 0
10 68 -28 0
146 29 -80 0
170 -57 -180 0
170 122 -7 0
184 132 106 0
43 185 -157 0
38 -32 -129 0
20 99 -2 0
24 -130 -46 0
106 -17 -117 0
-189 -39 -154 0
164 -115 -50 0
74 2 -102 0
19 15 -89 0
108 112 -111 0
139 -60 -122 0
159 -34 -194 0
169 88 -101 0
97 180 -160 0
85 -136 -49 0
44 144 -124 0
145 -96 -30 0
91 55 -62 0
54 22 -184 0
-25 -136 -1 0
47 150 -33 0
124 106 -127 0
125 -163 -148 0
85 -50 -103 0
-98 -64 -134 0
9 42 -30 0
107 -187 -156 0
31 2 175 0
86 88 -19 0
112 73 -68 0
188 8 -133 0
146 61 -172 0
-174 -76 -39 0
37 101 22 0
35 159 99 0
112 167 -104 0
-45 -183 -148 0
-138 -27 -125 0
157 67 22 0
32 -86 -5 0
180 152 -112 0
81 20 -12 0
49 57 -24 0
111 33 -117 0
167 98 -111 0
162 104 -75 0
55 197 110 0
92 15 188 0
10 68 -8 0
-111 -20 -21 0
42 114 -81 0
123 6 115 0
160 169 -66 0
46 -196 -187 0
59 144 -16 0
51 114 3 0
159 94 -150 0
144 177 -137 0
184 -168 -83 0
39 85 -142 0
84 -70 -127 0
56 63 -198 0
148 190 65 0
-86 -118 -150 0
28 32 -48 0
37 24 -41 0
99 -38 -49 0
-73 -98 -25 0
126 51 62 0
124 -179 -62 0
-110 -184 -94 0
112 70 -120 0
122 -172 -68 0
162 48 89 0
119 -56 -96 0
32 -177 -81 0
184 52 -62 0
79 9 -193 0
17 36 -199 0
141 107 -92 0
-129 -104 -46 0
147 -90 -20 0
110 98 -186 0
194 -50 -103 0
-109 -171 -118 0
41 -176 -59 0
199 150 -51 0
-38 -114 -65 0
186 -31 -183 0
57 143 -124 0
-176 -188 -57 0
122 -15 -118 0
30 -30 -80 0
45 -44 -2 0
143 -25 -200 0
200 26 -195 0
141 28 -65 0
75 -193 -33 0
-40 -32 -173 0
42 -37 -109 0
43 -65 -7 0
1 182 185 0
180 -7 -1 0
100 181 -125 0
45 102 -183 0
91 162 119 0
45 140 8 0
95 -196 -190 0
195 -155 -41 0
163 196 -141 0
120 95 176 0
172 -179 -94 0
-15 -63 -155 0
74 59 99 0
144 66 -7 0
137 19 -82 0
27 58 66 0
181 159 62 0
140 -80 -135 0
-34 -51 -146 0
166 -58 -101 0
113 92 -155 0
-107 -74 -28 0
190 -41 -40 0
-27 -136 -135 0
32 56 2 0
192 7 -24 0
199 197 128 0
141 180 -127 0
172 -44 -148 0
196 81 68 0
170 6 -42 0
-84 -43 -147 0
166 -149 -103 0
49 120 -111 0
1 102 -60 0
151 -4 -87 0
79 48 -76 0
183 -128 -6 0
189 128 -68 0
196 119 -8 0
163 156 -152 0
-197 -60 -47 0
191 37 -182 0
130 -8 -75 0
12 -171 -67 0
-7 -143 -16 0
52 126 -192 0
-45 -52 -153 0
192 153 -59 0
95 102 -15 0
-176 -94 -26 0
72 -115 -150 0
13 -41 -89 0
53 58 -62 0
-105 -120 -185 0
64 148 -56 0
4 119 2 0
-81 -30 -167 0
174 105 -169 0
-12 -88 -152 0
-11 -3 -57 0
76 -108 -21 0
-7 -101 -120 0
-69 -148 -186 0
183 -161 -176 0
174 188 -197 0
101 -118 -12 0
121 156 -140 0
39 -166 -88 0
119 185 142 0
-150 -143 -142 0
128 82 -82 0
153 24 -72 0
160 150 89 0
117 -127 -111 0
198 -152 -83 0
85 50 -136 0
86 -12 -139 0
70 -182 -166 0
64 -100 -34 0
72 -150 -99 0
5 -53 -171 0
79 -79 -54 0
16 78 29 0
-98 -109 -83 0
103 -73 -184 0
-48 -192 -194 0
23 53 -125 0
140 -165 -199 0
153 -167 -6 0
33 -137 -139 0
4 181 86 0
-154 -23 -107 0
75 66 16 0
131 23 -184 0
123 -163 -153 0
177 -177 -135 0
61 -136 -43 0
145 91 -70 0
83 26 8 0
1 -26 -131 0
126 88 102 0
164 -142 -74 0
21 152 -193 0
139 -38 -67 0
164 -119 -79 0
157 10 28 0
126 70 186 0
76 100 -90 0
-23 -29 -17 0
118 49 -30 0
-84 -171 -137 0
45 127 191 0
44 137 -169 0
-188 -181 -186 0
30 -117 -183 0
166 -16 -131 0
21 11 -189 0
179 134 -93 0
-85 -166 -134 0
172 62 -80 0
46 164 -92 0
106 -150 -179 0
116 115 -102 0
19 -44 -196 0
116 60 -18 0
8 158 -157 0
168 -138 -200 0
166 12 -52 0
14 165 -51 0
91 -93 -51 0
128 -10 -151 0
185 11 -115 0
66 131 -40 0
109 -170 -173 0
95 33 -28 0
4 40 -105 0
75 113 -49 0
169 28 -156 0
44 -155 -149 0
37 -116 -131 0
-152 -154 -149 0
37 -16 -123 0
33 122 -81 0
34 41 -28 0
35 130 -88 0
-112 -178 -86 0
3 -107 -20 0
-25 -42 -15 0
