c s2_mpfx_log_SQORealSpacePSO
p cnf 200 841
47 6 -54 0
182 10 -22 0
-114 -187 -81 0
100 -161 -42 0
37 -200 -86 0
183 -144 -130 0
164 80 -180 0
159 -157 -196 0
-157 -126 -75 0
48 17 -47 0
155 -97 -169 0
109 143 160 0
139 69 -150 0
89 200 -32 0
139 -44 -168 0
188 128 -132 0
-180 -190 -158 0
56 67 -174 0
31 172 128 0
73 -104 -16 0
148 -85 -43 0
117 -112 -136 0
145 -90 -184 0
112 -49 -31 0
40 115 -159 0
-166 -99 -146 0
86 -108 -80 0
107 -180 -89 0
23 83 -199 0
74 -63 -62 0
114 167 -35 0
77 76 52 0
165 157 -200 0
-139 -84 -45 0
65 171 -139 0
117 -177 -165 0
188 -195 -116 0
16 -101 -11 0
2 189 -83 0
27 48 -57 0
182 112 -73 0
-61 -68 -145 0
195 188 -49 0
111 -103 -114 0
39 38 -61 0
6 -157 -61 0
-13 -144 -144 0
52 147 -110 0
58 114 82 0
29 -11 -110 0
-22 -130 -159 0
180 -16 -195 0
-52 -51 -80 0
56 -151 -108 0
104 139 -183 0
181 -10 -174 0
66 99 69 0
33 151 -137 0
192 71 -109 0
60 -118 -92 0
-199 -189 -24 0
87 -98 -124 0
50 -189 -38 0
142 -78 -67 0
24 182 -90 0
105 96 119 0
53 107 199 0
60 150 -156 0
188 194 -110 0
133 12 -170 0
138 159 -114 0
200 4 -62 0
148 167 108 0
93 171 -158 0
120 -184 -1 0
48 -186 -179 0
23 132 -154 0
151 -173 -192 0
94 69 -20 0
200 51 -128 0
147 176 -131 0
-94 -75 -38 0
-164 -29 -128 0
-175 -153 -9 0
13 17 190 0
111 -63 -166 0
10 101 12 0
73 157 -23 0
39 -190 -149 0
13 6 -101 0
142 -137 -168 0
63 121 -164 0
166 89 -197 0
179 -113 -140 0
147 -196 -189 0
128 182 84 0
105 29 -118 0
135 -150 -91 0
-114 -150 -155 0
34 64 -77 0
153 168 -196 0
-138 -68 -91 0
125 168 -82 0
83 92 -20 0
8 200 -119 0
175 -50 -145 0
88 159 -38 0
57 136 -57 0
40 -165 -35 0
90 -170 -45 0
163 56 -53 0
142 63 48 0
101 -22 -55 0
-107 -42 -104 0
104 83 -196 0
197 55 -98 0
16 86 71 0
4 -68 -177 0
105 163 -169 0
168 96 -108 0
-22 -192 -26 0
116 -64 -171 0
-122 -101 -114 0
12 63 33 0
168 -51 -62 0
1 149 -80 0
94 -195 -108 0
128 -41 -130 0
144 92 -44 0
-94 -11 -43 0
67 -67 -164 0
172 -41 -28 0
115 -158 -194 0
-198 -93 -115 0
200 -141 -74 0
78 198 -119 0
74 -135 -98 0
34 74 -95 0
26 137 -187 0
59 -17 -153 0
138 28 -72 0
136 -70 -78 0
95 17 -94 0
-122 -162 -52 0
39 92 -116 0
-124 -162 -37 0
68 63 108 0
83 107 -111 0
-46 -92 -58 0
145 -74 -72 0
-153 -43 -166 0
58 73 -143 0
-104 -75 -142 0
37 169 -193 0
88 169 144 0
109 83 -33 0
159 -127 -92 0
127 -122 -119 0
97 -165 -59 0
99 145 54 0
42 47 49 0
77 21 192 0
85 -65 -166 0
170 -54 -52 0
23 -150 -79 0
91 -23 -181 0
-51 -56 -138 0
76 4 -199 0
53 36 -143 0
91 160 -169 0
-43 -200 -116 0
161 52 77 0
112 197 -9 0
200 125 -55 0
132 -131 -26 0
72 62 147 0
144 -29 -130 0
156 -124 -26 0
169 19 -31 0
92 -28 -60 0
101 11 -200 0
135 21 11 0
166 48 -168 0
155 32 -138 0
126 72 -113 0
163 180 55 0
79 73 -58 0
105 -173 -134 0
172 129 -153 0
73 50 83 0
149 51 -116 0
130 65 -102 0
151 177 194 0
95 -61 -122 0
58 -52 -145 0
7 2 154 0
60 64 -127 0
24 -39 -115 0
-45 -162 -10 0
51 33 -180 0
175 -49 -141 0
-3 -166 -92 0
72 178 79 0
140 4 91 0
167 -172 -10 0
129 117 -85 0
-12 -184 -130 0
-182 -195 -71 0
93 -57 -168 0
166 138 177 0
56 113 -193 0
145 -188 -131 0
57 -159 -181 0
33 95 -5 0
139 -76 -18 0
70 97 -175 0
174 -118 -32 0
64 28 78 0
72 131 -43 0
11 37 -55 0
123 76 -22 0
102 -174 -130 0
143 -27 -97 0
125 -94 -181 0
12 -167 -94 0
4 176 -46 0
-93 -91 -30 0
155 179 135 0
63 165 -123 0
135 -79 -38 0
51 175 -75 0
109 89 -68 0
194 117 112 0
137 -97 -185 0
42 -161 -101 0
192 -24 -178 0
29 188 -136 0
59 78 -178 0
-42 -118 -138 0
89 -116 -69 0
138 86 -30 0
109 -9 -147 0
53 -125 -89 0
110 -129 -76 0
9 13 -136 0
191 82 -99 0
2 178 -105 0
93 -153 -1 0
82 165 -157 0
-196 -200 -20 0
-102 -55 -17 0
87 -159 -27 0
177 94 -57 0
54 22 -195 0
84 133 -45 0
89 -104 -30 0
51 118 -199 0
56 -137 -62 0
93 -50 -102 0
116 -171 -184 0
18 -178 -61 0
81 83 -9 0
121 -95 -5 0
142 -46 -105 0
27 -106 -50 0
79 126 73 0
154 49 -163 0
12 -144 -92 0
41 164 12 0
157 28 -173 0
139 101 -53 0
14 -14 -62 0
-37 -154 -70 0
92 136 -82 0
55 143 -152 0
89 -74 -8 0
31 85 80 0
55 -113 -174 0
137 106 -7 0
68 156 31 0
56 -170 -134 0
-54 -143 -40 0
-73 -177 -119 0
89 138 -88 0
168 10 -73 0
143 -88 -117 0
164 -26 -112 0
85 -38 -49 0
41 -34 -68 0
15 87 -157 0
108 -195 -60 0
164 -65 -72 0
29 -112 -196 0
24 -138 -152 0
195 117 175 0
51 70 -101 0
98 94 31 0
61 147 -148 0
110 149 125 0
-141 -98 -113 0
64 8 -156 0
45 -41 -112 0
200 153 14 0
67 20 -62 0
-90 -166 -177 0
115 60 154 0
29 -84 -180 0
171 65 -104 0
122 -83 -182 0
67 -84 -27 0
52 151 -39 0
152 27 -177 0
141 -98 -126 0
19 176 -8 0
40 -53 -60 0
84 74 -158 0
115 -153 -156 0
113 157 58 0
-55 -102 -33 0
76 -34 -39 0
93 56 -123 0
166 161 -194 0
187 167 -34 0
146 -193 -39 0
126 7 -188 0
79 -19 -112 0
170 1 -80 0
42 58 -25 0
24 49 -110 0
71 65 8 0
159 166 -82 0
110 123 -59 0
-21 -2 -159 0
58 117 -104 0
10 86 175 0
55 -120 -91 0
45 136 -92 0
96 58 -4 0
153 -110 -173 0
36 87 114 0
-22 -55 -12 0
83 -22 -182 0
16 188 88 0
149 32 -13 0
97 170 39 0
41 94 -69 0
23 -63 -43 0
5 -170 -86 0
190 92 -72 0
116 -32 -1 0
93 157 -160 0
-186 -25 -190 0
-48 -13 -45 0
187 199 -88 0
13 5 -158 0
92 113 -7 0
40 -61 -147 0
11 55 -171 0
71 -145 -193 0
70 111 -8 0
50 90 75 0
122 -99 -119 0
95 82 -119 0
200 129 72 0
46 6 -78 0
54 150 -10 0
199 -66 -135 0
83 130 -180 0
174 96 -140 0
126 76 -31 0
112 172 -60 0
-35 -188 -21 0
15 -30 -128 0
116 175 -131 0
-56 -33 -76 0
112 48 -35 0
130 136 -167 0
-176 -36 -165 0
181 184 -173 0
64 70 -19 0
38 -186 -80 0
166 -150 -107 0
-161 -29 -16 0
189 -168 -42 0
-82 -192 -80 0
189 8 -111 0
50 -165 -10 0
112 -76 -55 0
133 -44 -80 0
-18 -151 -26 0
73 -191 -135 0
-14 -50 -167 0
155 107 -31 0
-18 -96 -164 0
-52 -19 -23 0
42 -190 -164 0
25 -149 -56 0
-121 -51 -187 0
-49 -72 -195 0
-137 -200 -2 0
181 155 -156 0
-115 -167 -32 0
17 -127 -31 0
40 137 -110 0
196 31 132 0
48 -81 -49 0
76 110 173 0
17 -37 -198 0
30 164 104 0
-108 -156 -154 0
11 -20 -20 0
96 -113 -15 0
182 150 133 0
102 -60 -42 0
173 -130 -48 0
74 200 122 0
115 -64 -144 0
168 110 -11 0
130 14 39 0
-80 -192 -16 0
29 -1 -46 0
52 42 -156 0
169 48 -177 0
111 -62 -192 0
86 90 -41 0
-141 -22 -145 0
7 41 -58 0
45 100 -86 0
160 -39 -91 0
154 -170 -32 0
151 -150 -12 0
-111 -31 -72 0
24 -20 -46 0
80 183 -9 0
26 10 64 0
51 102 -194 0
196 -151 -2 0
-22 -14 -56 0
148 -133 -79 0
21 -30 -34 0
-128 -97 -57 0
64 171 -77 0
14 -164 -80 0
58 -154 -67 0
197 3 -103 0
19 -97 -60 0
188 90 16 0
195 78 -13 0
138 162 -104 0
37 95 -24 0
4 -76 -6 0
41 60 -22 0
-26 -132 -169 0
121 -20 -171 0
111 181 -144 0
122 -116 -183 0
-96 -127 -60 0
28 -149 -132 0
59 78 89 0
47 -141 -163 0
-108 -86 -182 0
87 1 33 0
194 144 20 0
77 46 -179 0
-32 -40 -174 0
59 -111 -26 0
18 34 -129 0
74 55 -48 0
33 30 -176 0
87 -60 -19 0
21 177 -90 0
25 187 -18 0
1 -35 -198 0
152 157 171 0
26 -134 -187 0
85 78 -91 0
128 189 -76 0
159 136 129 0
175 -122 -66 0
26 165 -181 0
25 -99 -111 0
-8 -123 -104 0
67 76 -83 0
9 181 -26 0
51 72 -154 0
194 186 172 0
-121 -63 -68 0
31 72 188 0
192 136 -85 0
1 -102 -48 0
200 77 124 0
31 196 -146 0
18 -56 -128 0
-60 -64 -44 0
74 17 -119 0
-122 -108 -96 0
157 186 -19 0
178 52 -34 0
17 15 6 0
-157 -150 -135 0
57 121 -31 0
137 161 -109 0
172 44 -59 0
102 109 -117 0
143 27 -147 0
88 99 -73 0
-155 -157 -78 0
87 40 -86 0
94 -172 -188 0
-141 -189 -150 0
-89 -131 -152 0
139 -175 -111 0
3 -19 -147 0
148 -101 -168 0
68 -95 -89 0
5 -28 -199 0
103 -153 -106 0
132 -124 -53 0
138 13 58 0
105 -191 -40 0
22 36 -65 0
103 -128 -33 0
97 -159 -85 0
41 19 -89 0
9 175 -192 0
200 -58 -53 0
156 122 -28 0
55 -46 -158 0
32 -91 -95 0
-35 -163 -43 0
45 -118 -33 0
156 -56 -117 0
71 180 82 0
112 -35 -78 0
125 100 -168 0
125 -86 -149 0
170 129 89 0
70 -101 -55 0
30 83 -183 0
83 -33 -11 0
128 62 -30 0
11 124 -119 0
113 -155 -117 0
-176 -25 -96 0
27 122 -114 0
106 -59 -61 0
74 -184 -22 0
-13 -147 -189 0
53 -30 -159 0
105 41 -69 0
178 -191 -46 0
66 -142 -152 0
143 107 -66 0
151 167 -4 0
109 -8 -72 0
45 98 -33 0
126 -128 -140 0
25 153 188 0
45 168 -127 0
47 148 56 0
42 26 -69 0
138 -190 -156 0
-68 -198 -199 0
23 -135 -56 0
156 171 68 0
-167 -18 -40 0
138 -180 -115 0
182 -165 -42 0
46 153 -166 0
154 -59 -132 0
24 104 -29 0
149 142 -148 0
137 106 -93 0
71 64 -50 0
142 -38 -144 0
129 -96 -91 0
1 66 -19 0
49 89 -89 0
129 -133 -176 0
76 -101 -57 0
94 131 -31 0
66 -10 -99 0
189 180 47 0
174 -115 -97 0
78 38 -99 0
14 -76 -131 0
55 129 -120 0
182 178 -3 0
134 119 95 0
152 114 -151 0
1 123 -84 0
174 -35 -49 0
-143 -122 -111 0
96 -28 -79 0
87 -33 -35 0
112 -175 -66 0
81 -151 -147 0
148 104 -16 0
76 118 -89 0
129 -191 -150 0
-170 -29 -52 0
-36 -78 -6 0
-98 -81 -23 0
48 -197 -174 0
166 44 -66 0
43 -75 -93 0
148 96 -157 0
67 -139 -145 0
29 -24 -162 0
140 68 -35 0
49 189 40 0
153 -13 -81 0
69 167 -186 0
7 168 -82 0
95 -106 -124 0
194 9 27 0
122 78 -27 0
187 55 -125 0
117 61 50 0
2 -35 -106 0
38 -23 -142 0
39 -104 -54 0
193 13 -169 0
61 124 46 0
63 -44 -99 0
195 -58 -134 0
184 75 -136 0
187 -99 -178 0
162 -42 -26 0
126 140 -200 0
169 81 -60 0
33 124 200 0
184 146 125 0
162 -2 -165 0
77 -80 -27 0
130 3 -7 0
56 -95 -161 0
148 34 -57 0
119 -180 -119 0
59 176 -175 0
28 142 -162 0
77 -73 -9 0
113 -34 -117 0
180 -21 -87 0
162 -191 -172 0
133 193 -23 0
22 -163 -8 0
61 33 -20 0
132 -79 -200 0
-120 -85 -109 0
69 159 200 0
131 74 -52 0
192 -186 -127 0
87 53 -196 0
116 -108 -191 0
134 110 -190 0
195 -162 -124 0
89 161 -118 0
193 -64 -113 0
186 -2 -105 0
75 187 -155 0
102 55 -106 0
123 160 -107 0
135 148 30 0
-160 -40 -8 0
156 -133 -49 0
198 -199 -124 0
100 -70 -39 0
34 23 -148 0
62 -6 -170 0
-79 -139 -42 0
41 170 107 0
-133 -138 -123 0
191 -116 -39 0
77 148 -198 0
129 -121 -89 0
-104 -136 -69 0
47 26 112 0
113 179 -13 0
194 89 -147 0
133 29 -35 0
174 80 -27 0
166 132 -30 0
91 -127 -30 0
12 45 -191 0
177 -7 -194 0
199 151 -37 0
11 176 -14 0
125 189 153 0
-119 -89 -171 0
82 -136 -145 0
191 -92 -7 0
37 -55 -13 0
135 -2 -134 0
72 100 -184 0
8 -59 -49 0
39 195 -174 0
74 -96 -149 0
175 -102 -76 0
105 74 -98 0
43 -25 -93 0
160 -89 -88 0
122 177 -9 0
105 77 168 0
127 102 -178 0
-199 -104 -192 0
73 100 4 0
121 44 -192 0
143 117 78 0
38 196 -109 0
62 36 -114 0
160 -157 -196 0
-96 -1 -77 0
9 -184 -32 0
77 93 -200 0
56 -139 -100 0
124 52 -105 0
167 187 -85 0
178 21 -45 0
119 105 -21 0
101 37 -155 0
162 174 -152 0
125 -33 -6 0
78 -130 -196 0
59 -93 -12 0
49 3 -66 0
158 143 18 0
37 -181 -48 0
75 -180 -174 0
-122 -149 -70 0
156 102 24 0
77 1 -103 0
73 94 -136 0
-67 -198 -95 0
141 57 -56 0
105 114 -84 0
126 24 -102 0
117 49 -70 0
114 176 -176 0
182 -21 -15 0
127 34 -58 0
38 196 -69 0
141 -151 -120 0
-164 -75 -31 0
176 36 -189 0
166 199 122 0
186 123 -58 0
10 167 169 0
168 -160 -192 0
200 -15 -158 0
199 126 -112 0
-149 -29 -133 0
198 -186 -114 0
81 55 -103 0
8 -135 -154 0
5 110 181 0
149 -104 -175 0
170 -61 -73 0
28 -128 -31 0
103 -188 -93 0
87 -131 -23 0
169 -162 -163 0
76 -99 -155 0
190 -146 -26 0
55 -150 -61 0
65 122 -120 0
198 86 -74 0
170 3 177 0
68 -96 -64 0
139 -65 -168 0
138 -121 -183 0
94 141 -5 0
181 61 -8 0
127 -80 -13 0
11 -121 -188 0
42 -178 -184 0
72 -67 -27 0
81 128 169 0
62 68 -193 0
46 167 169 0
82 -125 -89 0
179 136 -7 0
-139 -38 -35 0
27 64 103 0
91 74 -50 0
125 49 -151 0
78 -103 -169 0
130 164 -53 0
17 68 140 0
113 71 152 0
70 44 -23 0
-124 -7 -104 0
-4 -128 -154 0
5 90 -25 0
145 112 -7 0
43 -96 -133 0
159 190 175 0
155 131 -151 0
80 69 -96 0
110 67 -6 0
6 47 105 0
100 -190 -77 0
61 -67 -68 0
95 -44 -40 0
199 68 148 0
163 55 123 0
165 21 -125 0
-11 -180 -127 0
159 177 14 0
51 11 -141 0
25 188 -37 0
173 32 -21 0
184 141 190 0
31 -170 -62 0
141 121 -197 0
127 139 185 0
167 7 -42 0
89 -48 -8 0
27 -25 -185 0
51 84 -148 0
-137 -67 -36 0
97 91 163 0
197 8 -112 0
127 4 57 0
8 132 -40 0
66 9 -86 0
117 -152 -68 0
69 24 -76 0
88 128 122 0
182 103 -3 0
24 166 -114 0
159 194 -63 0
141 172 -98 0
194 108 -20 0
194 -102 -23 0
44 193 -186 0
54 -84 -40 0
23 126 -91 0
106 175 -77 0
47 -164 -162 0
75 57 -193 0
