c s2_mpfx_pow2_SQORealSpacePSO
p cnf 200 838
48 23 -49 0
177 10 -22 0
-120 -186 -82 0
100 -163 -42 0
38 -200 -81 0
181 -140 -130 0
164 81 -179 0
160 -156 -196 0
-157 -128 -73 0
48 18 -48 0
155 -100 -167 0
108 144 157 0
138 79 -159 0
85 200 -39 0
140 -45 -168 0
188 129 -131 0
-180 -190 -142 0
57 68 -175 0
36 176 128 0
72 -100 -17 0
152 -71 -39 0
120 -110 -136 0
144 -91 -183 0
108 -50 -31 0
39 111 -162 0
-169 -113 -143 0
87 -107 -76 0
104 -180 -98 0
22 83 -199 0
73 -65 -60 0
110 170 -37 0
76 78 53 0
169 152 -200 0
-145 -85 -42 0
78 153 -145 0
117 -174 -164 0
187 -196 -116 0
16 -118 -10 0
189 -3 -79 0
28 45 -57 0
182 124 -74 0
-63 -68 -145 0
196 187 -46 0
113 -103 -112 0
37 36 -55 0
7 -157 -47 0
-14 -144 -142 0
54 147 -127 0
59 138 81 0
27 -11 -110 0
-21 -131 -159 0
179 -24 -194 0
-50 -50 -83 0
56 -146 -108 0
107 138 -184 0
176 -10 -174 0
75 98 68 0
34 157 -135 0
193 77 -110 0
59 -121 -92 0
-200 -190 -26 0
92 -97 -109 0
48 -190 -41 0
143 -78 -53 0
25 183 -93 0
106 102 121 0
53 106 199 0
62 150 -155 0
188 194 -113 0
139 12 -166 0
142 162 -111 0
200 11 -57 0
147 166 118 0
86 171 -158 0
122 2 -184 0
48 -183 -178 0
24 129 -155 0
153 -173 -177 0
96 89 -19 0
200 48 -108 0
161 169 -131 0
-92 -50 -39 0
-165 -25 -119 0
-174 -151 -8 0
16 29 189 0
114 -64 -192 0
10 102 9 0
75 157 -22 0
40 -189 -159 0
13 11 -100 0
125 -135 -171 0
59 116 -165 0
166 87 -196 0
178 -111 -139 0
142 -196 -189 0
126 185 84 0
105 32 -125 0
135 -150 -88 0
-120 -149 -154 0
35 64 -73 0
152 166 -191 0
-135 -74 -91 0
123 167 -77 0
84 91 -20 0
8 200 -110 0
176 -51 -150 0
91 160 -34 0
57 137 -58 0
40 -164 -37 0
73 -168 -49 0
163 49 -54 0
152 63 47 0
100 -22 -57 0
-101 -42 -103 0
105 84 -196 0
197 19 -99 0
16 95 72 0
3 -63 -177 0
121 164 -170 0
175 93 -116 0
-21 -191 -26 0
106 -65 -171 0
-124 -102 -114 0
15 64 40 0
165 -52 -59 0
148 -3 -78 0
88 -195 -109 0
126 -39 -129 0
142 92 -35 0
-105 -11 -40 0
68 -65 -162 0
175 -41 -28 0
110 -164 -194 0
-198 -99 -115 0
200 -141 -75 0
77 198 -108 0
73 -134 -116 0
33 69 -92 0
20 135 -187 0
59 -16 -155 0
122 29 -76 0
136 -62 -79 0
96 16 -94 0
-141 -163 -58 0
23 89 -116 0
-131 -165 -37 0
74 63 119 0
86 114 -113 0
-44 -90 -57 0
145 -78 -72 0
-152 -43 -169 0
71 73 -143 0
-107 -74 -143 0
37 154 -193 0
94 170 142 0
108 84 -36 0
159 -127 -92 0
119 -123 -109 0
83 -166 -89 0
97 143 54 0
43 45 47 0
78 27 192 0
87 -71 -170 0
170 -54 -50 0
23 -150 -80 0
94 -24 -181 0
-55 -56 -137 0
81 5 -198 0
52 34 -143 0
91 157 -165 0
-42 -200 -116 0
163 67 79 0
111 197 -9 0
199 135 -55 0
133 -169 -30 0
71 64 146 0
142 -30 -134 0
159 -117 -25 0
168 20 -34 0
90 -24 -55 0
102 12 -200 0
141 20 10 0
165 50 -165 0
154 30 -142 0
124 73 -113 0
161 178 60 0
80 68 -59 0
111 -174 -137 0
171 129 -152 0
77 54 91 0
149 50 -112 0
130 68 -103 0
150 177 193 0
98 -64 -120 0
66 -65 -144 0
6 2 162 0
63 61 -125 0
24 -40 -114 0
-43 -154 -10 0
48 32 -177 0
176 -54 -141 0
-3 -163 -92 0
72 188 79 0
136 5 87 0
151 -173 -6 0
129 119 -87 0
-19 -184 -129 0
-175 -194 -74 0
96 -58 -171 0
165 138 179 0
49 123 -192 0
146 -188 -131 0
57 -159 -174 0
4 94 -2 0
138 -74 -18 0
70 125 -188 0
175 -121 -35 0
65 28 79 0
72 131 -42 0
8 39 -59 0
119 75 -22 0
104 -176 -132 0
145 -27 -99 0
125 -105 -182 0
13 -168 -95 0
6 114 -39 0
-94 -92 -30 0
154 179 139 0
62 164 -125 0
132 -79 -57 0
54 172 -74 0
110 90 -69 0
195 112 117 0
127 -101 -182 0
50 -142 -115 0
193 -22 -193 0
29 188 -132 0
59 77 -200 0
-44 -119 -137 0
88 -118 -69 0
138 83 -32 0
104 -8 -198 0
52 -125 -27 0
107 -127 -77 0
10 11 -136 0
191 84 -90 0
14 183 -105 0
95 -153 -7 0
89 157 -160 0
-195 -200 -21 0
-98 -55 -17 0
86 -159 -26 0
178 94 -63 0
54 21 -193 0
85 133 -44 0
91 -105 -31 0
47 123 -199 0
56 -153 -64 0
85 -55 -98 0
115 -175 -184 0
16 -177 -49 0
82 85 -9 0
118 -97 -5 0
145 -47 -110 0
29 -106 -60 0
78 131 73 0
149 52 -163 0
24 -144 -92 0
41 164 12 0
152 28 -175 0
139 123 -44 0
14 -15 -89 0
-39 -153 -69 0
92 136 -80 0
55 140 -153 0
88 -76 -11 0
22 87 81 0
55 -118 -173 0
124 108 -8 0
68 150 31 0
24 -168 -133 0
-54 -145 -40 0
-72 -177 -143 0
89 138 -88 0
168 10 -75 0
143 -92 -116 0
161 -22 -119 0
86 -138 -58 0
41 -36 -68 0
15 90 -157 0
106 -200 -61 0
168 -67 -80 0
28 -107 -197 0
23 -137 -151 0
195 99 193 0
53 70 -100 0
97 87 9 0
63 147 -148 0
108 150 124 0
-141 -103 -113 0
62 44 -156 0
48 -46 -114 0
200 152 14 0
67 21 -61 0
-89 -165 -176 0
114 59 156 0
29 -84 -180 0
171 65 -105 0
121 -82 -182 0
72 -87 -28 0
59 152 -34 0
146 24 -179 0
137 -103 -126 0
20 177 -8 0
41 -56 -64 0
83 79 -159 0
115 -153 -154 0
118 157 56 0
-44 -103 -32 0
65 -32 -41 0
93 56 -121 0
166 159 -194 0
188 167 -25 0
146 -191 -38 0
127 5 -188 0
74 -20 -113 0
171 5 -80 0
48 49 -26 0
23 49 -111 0
73 67 4 0
161 166 -84 0
109 123 -56 0
-34 -2 -155 0
61 107 -75 0
10 82 175 0
56 -123 -81 0
66 132 -92 0
95 72 -7 0
151 -109 -173 0
40 87 115 0
-23 -55 -12 0
85 -18 -183 0
15 188 88 0
150 32 -12 0
94 174 33 0
39 94 -86 0
25 -64 -41 0
4 -169 -94 0
183 82 -73 0
11 118 -39 0
104 169 -158 0
-187 -19 -189 0
-44 -13 -47 0
186 198 -88 0
14 5 -157 0
82 113 -6 0
40 -63 -147 0
10 55 -169 0
71 -151 -184 0
69 113 -8 0
46 93 78 0
120 -99 -122 0
95 76 -119 0
200 82 48 0
37 14 -77 0
59 149 -10 0
199 -66 -111 0
65 128 -185 0
166 93 -141 0
126 76 -31 0
87 172 -60 0
-37 -189 -21 0
17 -32 -126 0
115 173 -132 0
-60 -38 -76 0
111 48 -35 0
135 139 -172 0
-167 -31 -164 0
176 184 -174 0
43 57 -21 0
37 -186 -69 0
168 -151 -111 0
-160 -29 -21 0
188 -168 -47 0
-82 -193 -79 0
187 6 -109 0
51 -168 -8 0
122 -76 -56 0
131 -46 -71 0
-9 -136 -27 0
72 -190 -138 0
-13 -47 -171 0
156 112 -34 0
-17 -103 -166 0
-62 -20 -23 0
44 -191 -162 0
30 -127 -58 0
-120 -53 -183 0
-46 -73 -195 0
-137 -200 -3 0
182 160 -156 0
-117 -168 -37 0
17 -127 -31 0
46 146 -120 0
196 45 131 0
47 -87 -51 0
74 110 172 0
15 -41 -198 0
31 160 91 0
-106 -124 -154 0
10 -21 -22 0
93 -114 -13 0
181 139 136 0
102 -55 -37 0
173 -129 -52 0
73 200 122 0
113 -70 -147 0
171 92 -12 0
130 13 39 0
-80 -190 -16 0
29 -4 -52 0
50 42 -156 0
168 48 -178 0
106 -58 -192 0
86 79 -42 0
-145 -23 -148 0
8 40 -59 0
43 101 -86 0
156 -39 -84 0
149 -165 -32 0
154 -154 -11 0
-111 -30 -72 0
24 -22 -45 0
93 184 -10 0
30 9 64 0
51 102 -194 0
196 -151 -2 0
-23 -14 -56 0
147 -133 -74 0
21 -30 -34 0
-127 -97 -57 0
80 172 -80 0
14 -164 -85 0
56 -155 -66 0
198 1 -103 0
19 -96 -64 0
185 88 17 0
193 79 -13 0
142 162 -107 0
48 96 -25 0
5 -71 -7 0
41 59 -23 0
-26 -130 -169 0
114 -22 -183 0
112 182 -144 0
120 -116 -174 0
-94 -125 -53 0
14 -149 -107 0
60 80 100 0
51 -139 -168 0
-115 -86 -181 0
88 1 58 0
194 145 20 0
70 46 -177 0
-34 -41 -178 0
57 -111 -35 0
19 35 -130 0
81 61 -48 0
36 45 -177 0
89 -62 -18 0
23 176 -84 0
27 187 -19 0
-33 -198 -3 0
153 160 170 0
25 -135 -182 0
83 33 -106 0
124 190 -76 0
160 133 128 0
175 -123 -67 0
38 169 -180 0
18 -99 -87 0
-4 -123 -100 0
58 75 -82 0
14 187 -22 0
51 75 -154 0
195 187 170 0
-120 -63 -70 0
32 75 189 0
190 137 -84 0
1 -106 -45 0
200 77 124 0
31 196 -146 0
18 -59 -126 0
-61 -58 -43 0
73 20 -120 0
-112 -106 -96 0
158 186 -18 0
179 43 -35 0
14 25 6 0
-158 -149 -142 0
57 122 -32 0
138 159 -109 0
177 65 -48 0
101 111 -117 0
142 27 -141 0
93 99 -73 0
-174 -158 -78 0
89 40 -87 0
93 -172 -187 0
-138 -186 -155 0
-89 -132 -146 0
139 -171 -113 0
4 -20 -146 0
149 -102 -169 0
67 -94 -89 0
6 -27 -200 0
102 -155 -106 0
128 -123 -55 0
138 14 56 0
107 -189 -43 0
25 39 -66 0
100 -129 -49 0
95 -158 -82 0
41 18 -88 0
10 175 -190 0
200 -56 -54 0
156 123 -33 0
52 -45 -153 0
32 -92 -102 0
-29 -165 -36 0
51 -123 -34 0
153 -56 -117 0
74 181 77 0
113 -34 -83 0
126 84 -169 0
128 -88 -150 0
171 122 88 0
112 -156 -53 0
28 80 -183 0
87 -33 -12 0
130 65 -29 0
11 118 -120 0
106 -160 -116 0
-176 -25 -97 0
27 122 -119 0
118 -33 -59 0
68 -183 -23 0
-13 -148 -187 0
42 -30 -154 0
97 32 -67 0
178 -191 -43 0
75 -145 -155 0
148 107 -71 0
154 168 -4 0
111 -7 -67 0
49 98 -33 0
126 -126 -134 0
24 136 189 0
44 168 -118 0
42 147 56 0
37 23 -65 0
140 -190 -157 0
-69 -194 -192 0
26 -135 -54 0
156 171 61 0
-172 -17 -45 0
136 -175 -114 0
183 -165 -34 0
38 154 -168 0
148 -60 -134 0
24 105 -29 0
153 143 -148 0
141 111 -93 0
71 64 -48 0
150 -43 -144 0
130 -96 -91 0
1 64 -12 0
49 88 -88 0
191 -133 -173 0
79 -101 -51 0
84 127 -32 0
67 -14 -100 0
189 182 48 0
175 -113 -110 0
78 39 -98 0
14 -74 -130 0
52 128 -112 0
184 2 182 0
146 118 98 0
152 116 -148 0
1 116 -83 0
176 -31 -49 0
-146 -122 -110 0
98 -27 -82 0
89 -33 -36 0
113 -177 -65 0
82 -151 -151 0
158 116 -16 0
75 115 -84 0
130 -191 -144 0
-171 -28 -52 0
10 -35 -79 0
-96 -77 -19 0
47 -197 -174 0
166 45 -74 0
43 -76 -92 0
150 96 -160 0
67 -140 -137 0
29 -24 -164 0
7 142 68 0
49 189 39 0
153 -9 -69 0
68 167 -187 0
7 169 -81 0
104 -93 -117 0
188 9 25 0
111 79 -25 0
187 55 -114 0
115 71 40 0
2 -34 -107 0
39 -6 -137 0
44 -104 -54 0
195 28 -168 0
61 127 46 0
62 -43 -99 0
195 -58 -125 0
184 69 -143 0
187 -102 -179 0
162 -42 -26 0
118 140 -200 0
170 77 -60 0
53 122 200 0
184 147 126 0
164 -3 -166 0
95 -75 -29 0
155 2 -9 0
54 -97 -162 0
148 35 -22 0
118 -181 -119 0
59 175 -174 0
28 144 -160 0
77 -71 -4 0
119 -54 -117 0
179 -21 -88 0
164 -191 -168 0
173 199 -23 0
22 -163 -8 0
66 34 -15 0
131 -82 -200 0
-119 -91 -110 0
69 159 200 0
130 78 -51 0
192 -182 -127 0
88 60 -197 0
119 -104 -188 0
125 109 -190 0
195 -153 -124 0
93 162 -111 0
186 -51 -105 0
185 -2 -104 0
89 184 -149 0
114 54 -128 0
123 161 -114 0
133 148 30 0
-160 -39 -8 0
158 -131 -50 0
198 -199 -131 0
99 -65 -40 0
26 24 -141 0
60 -6 -170 0
-77 -131 -43 0
42 171 107 0
-131 -134 -125 0
191 -117 -26 0
76 146 -196 0
125 -119 -83 0
-103 -136 -66 0
65 38 110 0
112 177 -15 0
195 85 -148 0
131 29 -34 0
173 78 -26 0
174 127 -25 0
88 -126 -31 0
14 25 -191 0
168 -7 -194 0
194 152 -39 0
11 177 -16 0
125 188 153 0
-115 -99 -172 0
84 -137 -146 0
191 -81 -11 0
40 -50 -15 0
131 -20 -132 0
71 96 -184 0
5 -60 -48 0
39 195 -158 0
103 -96 -150 0
175 -100 -76 0
102 74 -89 0
42 -25 -91 0
160 -87 -112 0
128 176 -10 0
112 77 167 0
130 102 -178 0
-195 -110 -191 0
74 101 3 0
124 45 -192 0
144 111 78 0
36 197 -118 0
63 37 -120 0
179 -148 -199 0
-95 -2 -77 0
35 -179 -27 0
85 99 -200 0
71 -149 -87 0
124 53 -104 0
168 189 -89 0
180 21 -47 0
118 104 -22 0
99 40 -147 0
161 176 -154 0
128 -33 -6 0
88 -133 -198 0
57 -94 -9 0
50 6 -65 0
157 137 22 0
37 -176 -50 0
68 -180 -174 0
-122 -150 -74 0
156 102 20 0
83 2 -92 0
66 78 -135 0
-68 -198 -86 0
143 57 -56 0
105 110 -98 0
123 24 -102 0
110 48 -69 0
115 176 -176 0
181 -22 -10 0
126 30 -58 0
37 197 -84 0
135 -153 -128 0
-162 -77 -36 0
174 36 -189 0
167 200 123 0
186 121 -53 0
11 167 171 0
167 -155 -192 0
200 -15 -156 0
199 129 -114 0
-144 -28 -134 0
193 -187 -115 0
81 71 -104 0
10 -136 -156 0
10 109 189 0
153 -109 -174 0
172 -59 -57 0
27 -112 -29 0
104 -189 -93 0
85 -130 -21 0
170 -147 -157 0
76 -101 -156 0
190 -141 -29 0
54 -153 -64 0
63 103 -123 0
197 82 -95 0
168 1 180 0
62 -96 -63 0
138 -66 -174 0
144 -121 -183 0
101 160 -4 0
181 59 -9 0
130 -80 -14 0
11 -119 -198 0
41 -178 -184 0
71 -78 -28 0
66 130 169 0
65 67 -193 0
40 166 169 0
87 -129 -106 0
180 131 -7 0
-137 -38 -31 0
25 62 103 0
89 70 -52 0
126 49 -152 0
81 -101 -170 0
129 165 -46 0
24 67 143 0
102 71 148 0
66 43 -24 0
-123 -7 -102 0
-3 -159 -129 0
5 88 -27 0
152 99 -7 0
43 -99 -130 0
143 191 174 0
156 117 -149 0
91 58 -96 0
112 66 -7 0
7 60 104 0
100 -186 -78 0
61 -67 -68 0
96 -30 -39 0
199 69 148 0
161 51 124 0
164 23 -125 0
-14 -183 -132 0
158 174 4 0
52 11 -140 0
19 187 -36 0
171 26 -23 0
183 140 188 0
31 -171 -60 0
147 119 -197 0
126 139 183 0
167 9 -40 0
92 -53 -11 0
28 -25 -185 0
38 75 -149 0
-129 -67 -26 0
125 83 163 0
195 9 -114 0
127 4 57 0
7 148 -39 0
63 6 -93 0
109 -162 -66 0
71 24 -78 0
86 131 123 0
188 103 -3 0
23 180 -117 0
166 194 -71 0
140 170 -100 0
195 104 -21 0
194 -101 -21 0
48 193 -185 0
55 -84 -41 0
23 124 -90 0
