p cnf 150 400
-113 -51 101 0
12 83 -148 0
24 120 142 0
-117 -38 -134 0
149 -146 -40 0
-69 80 -109 0
-98 149 -105 0
132 24 127 0
-49 -2 115 0
-127 -132 24 0
30 -13 -28 0
101 58 4 0
-144 123 -51 0
-94 -81 -113 0
25 105 -9 0
78 62 117 0
-113 51 -101 0
12 50 126 0
-37 -108 -32 0
-33 109 76 0
-34 -106 -128 0
61 -88 139 0
11 102 -61 0
-17 -54 -44 0
124 -123 -66 0
-39 96 -91 0
115 -45 -55 0
13 -53 80 0
-27 97 36 0
8 -52 -23 0
89 5 -128 0
-43 14 131 0
68 -143 -150 0
-107 77 119 0
148 54 107 0
48 141 -3 0
79 -21 -69 0
-87 2 86 0
99 -75 -125 0
-107 -54 148 0
30 -72 37 0
92 -129 6 0
35 143 38 0
-105 9 25 0
47 -1 -79 0
-66 -124 123 0
59 95 4 0
-56 -17 -16 0
-87 -11 121 0
-7 -140 -20 0
-109 69 -80 0
-13 80 53 0
44 -116 64 0
132 65 110 0
-120 114 81 0
-18 98 -73 0
-142 -57 -82 0
-95 -53 22 0
-4 -95 59 0
125 114 97 0
-1 -47 79 0
-57 142 82 0
-43 -14 -131 0
102 3 -150 0
17 56 -16 0
138 90 -99 0
148 -12 83 0
-121 145 49 0
144 -8 85 0
117 -134 38 0
-13 -53 -80 0
-72 -37 -30 0
-25 -41 20 0
76 100 133 0
-71 19 -135 0
-77 -55 108 0
-20 -41 25 0
57 -82 142 0
97 -114 -125 0
147 -5 124 0
-41 127 -118 0
-34 60 42 0
96 91 39 0
29 -96 -64 0
31 82 84 0
52 -8 -23 0
-123 51 -144 0
-62 33 -39 0
-36 -70 -75 0
-29 -96 64 0
-67 140 10 0
53 13 -80 0
131 134 -118 0
67 -140 10 0
-112 -15 14 0
105 -98 -149 0
-135 71 -19 0
28 13 30 0
116 -136 103 0
84 -138 -145 0
41 -20 -25 0
62 -117 -78 0
-82 31 -84 0
23 -8 -52 0
70 -75 36 0
-50 126 -12 0
-26 -85 91 0
51 101 113 0
83 -135 -48 0
16 -126 -66 0
-110 132 -65 0
-24 -142 120 0
105 98 149 0
-90 137 -70 0
8 52 23 0
-142 -120 24 0
134 -117 38 0
138 145 84 0
12 148 -83 0
-81 -114 -120 0
-139 63 112 0
-119 -71 -40 0
60 -122 -78 0
44 17 -54 0
-71 135 -19 0
-85 -144 -8 0
17 -44 54 0
94 -113 81 0
136 -106 147 0
49 115 2 0
32 93 -45 0
141 -48 3 0
106 128 -34 0
-82 84 -31 0
-63 146 9 0
-79 -21 69 0
20 25 41 0
65 46 129 0
-103 -68 7 0
-37 30 72 0
-93 -56 42 0
127 -24 -132 0
-62 -117 78 0
-65 -132 110 0
-25 -105 -9 0
-42 -93 56 0
9 -25 105 0
-92 129 6 0
-14 131 43 0
-115 49 -2 0
55 -77 -108 0
11 -121 -87 0
-103 68 -7 0
47 1 79 0
107 -148 -54 0
87 11 121 0
-140 20 7 0
122 47 29 0
10 -21 72 0
106 136 -147 0
135 -48 -83 0
-68 103 -7 0
-131 -134 -118 0
-69 21 -79 0
-11 -61 -102 0
-150 -3 -102 0
-139 -63 -112 0
28 -18 92 0
-10 -72 -21 0
123 124 66 0
62 -39 -33 0
-51 113 -101 0
144 51 123 0
18 98 73 0
61 -102 11 0
73 -43 -111 0
125 -97 -114 0
82 -142 57 0
-30 37 72 0
61 -11 102 0
75 -99 -125 0
95 22 53 0
-86 -31 -19 0
-9 -146 -63 0
-85 -91 26 0
87 -86 2 0
86 31 -19 0
42 34 -60 0
130 -89 -35 0
-110 -104 -141 0
140 -7 20 0
31 -86 19 0
115 55 45 0
138 -84 -145 0
56 -17 16 0
77 107 -119 0
94 23 -130 0
69 21 79 0
-116 -136 -103 0
75 -36 70 0
95 -22 -53 0
-29 47 -122 0
-10 72 21 0
-31 82 -84 0
-28 18 92 0
100 -52 -22 0
90 99 -138 0
106 34 -128 0
65 -132 -110 0
-55 77 -108 0
71 119 -40 0
-17 54 44 0
23 130 -94 0
-34 -42 -60 0
26 1 58 0
-42 60 34 0
44 -64 116 0
12 -50 -126 0
58 -26 -1 0
-124 -123 66 0
104 -50 111 0
3 150 -102 0
-35 38 -143 0
117 134 -38 0
29 -122 -47 0
-38 -143 35 0
15 -14 -112 0
-133 74 -6 0
-62 -33 39 0
-114 120 81 0
132 -127 -24 0
145 -138 -84 0
-14 112 -15 0
85 -91 -26 0
50 111 -104 0
40 71 -119 0
-97 27 36 0
-65 129 -46 0
88 -61 139 0
32 37 -108 0
87 -121 -11 0
50 -111 104 0
-57 -137 -46 0
52 -100 -22 0
33 -76 109 0
77 108 55 0
-75 125 -99 0
-35 89 -130 0
-73 -111 43 0
70 -90 -137 0
-133 -100 76 0
35 130 89 0
48 -135 -83 0
71 135 19 0
99 125 75 0
-131 118 134 0
66 126 16 0
5 -124 147 0
7 103 68 0
63 -146 9 0
112 -63 139 0
-1 -58 26 0
-49 121 145 0
-119 -77 -107 0
64 116 -44 0
-86 -87 -2 0
69 80 109 0
67 -27 59 0
67 -59 27 0
117 -62 -78 0
136 116 -103 0
85 91 26 0
118 131 -134 0
1 -26 -58 0
48 135 83 0
-129 -6 -92 0
41 -127 -118 0
-20 140 7 0
18 28 -92 0
57 46 -137 0
-109 33 76 0
5 -89 128 0
-104 -111 -50 0
143 -68 -150 0
-128 -89 -5 0
-30 -28 13 0
121 -145 49 0
-138 -90 -99 0
43 -131 14 0
37 -32 108 0
-76 133 -100 0
-39 91 -96 0
113 -81 94 0
102 150 -3 0
-136 -106 -147 0
41 118 127 0
-126 -12 50 0
21 10 -72 0
-130 -94 -23 0
-73 111 -43 0
65 -129 -46 0
133 -6 -74 0
-121 -145 -49 0
70 137 90 0
-16 126 -66 0
-10 -140 -67 0
-115 55 -45 0
90 -70 -137 0
150 -68 -143 0
-77 119 107 0
-93 -45 -32 0
114 -81 120 0
-64 96 -29 0
-9 146 63 0
45 -115 -55 0
-59 -4 95 0
128 -5 89 0
-106 128 34 0
100 -133 -76 0
-38 -35 143 0
-47 -29 122 0
67 -10 140 0
-70 75 36 0
112 14 15 0
93 42 56 0
94 130 -23 0
88 15 74 0
-15 -74 88 0
137 57 -46 0
-42 -56 93 0
-76 -109 -33 0
133 6 74 0
-110 141 104 0
-36 27 97 0
-124 -147 -5 0
-37 108 32 0
-59 -67 -27 0
64 96 29 0
118 -127 -41 0
-27 -97 -36 0
150 143 68 0
-61 -139 -88 0
122 78 60 0
-100 -52 22 0
81 -94 113 0
-80 -69 109 0
43 73 111 0
39 33 62 0
146 -149 -40 0
110 104 -141 0
-95 4 -59 0
136 103 -116 0
142 -24 -120 0
-116 -64 -44 0
54 -107 -148 0
45 -93 32 0
-4 -58 101 0
92 -6 129 0
53 -95 -22 0
-136 147 106 0
-139 88 61 0
-83 -148 -12 0
-122 78 -60 0
66 -126 -16 0
8 144 -85 0
52 22 100 0
46 137 -57 0
86 -2 87 0
98 -105 -149 0
-13 -30 28 0
-90 138 99 0
-133 -74 6 0
-60 -78 122 0
141 110 -104 0
45 93 -32 0
-4 -101 58 0
-48 -3 -141 0
144 -51 -123 0
-98 18 -73 0
-56 16 17 0
-96 39 -91 0
74 -15 -88 0
146 40 149 0
-141 3 48 0
59 27 -67 0
19 -31 86 0
-92 -28 -18 0
-89 -130 35 0
-58 4 -101 0
124 -147 5 0
85 -144 8 0
-79 -47 1 0
-146 40 -149 0
46 -65 -129 0
-18 73 -98 0
139 -112 63 0
-115 2 -49 0
40 119 -71 0
-97 -125 114 0
-74 -88 15 0
