c two-colour van der Waerden W(2;3,13) contradiction on [160]
p cnf 160 7308
1 2 3 0
2 3 4 0
3 4 5 0
4 5 6 0
5 6 7 0
6 7 8 0
7 8 9 0
8 9 10 0
9 10 11 0
10 11 12 0
11 12 13 0
12 13 14 0
13 14 15 0
14 15 16 0
15 16 17 0
16 17 18 0
17 18 19 0
18 19 20 0
19 20 21 0
20 21 22 0
21 22 23 0
22 23 24 0
23 24 25 0
24 25 26 0
25 26 27 0
26 27 28 0
27 28 29 0
28 29 30 0
29 30 31 0
30 31 32 0
31 32 33 0
32 33 34 0
33 34 35 0
34 35 36 0
35 36 37 0
36 37 38 0
37 38 39 0
38 39 40 0
39 40 41 0
40 41 42 0
41 42 43 0
42 43 44 0
43 44 45 0
44 45 46 0
45 46 47 0
46 47 48 0
47 48 49 0
48 49 50 0
49 50 51 0
50 51 52 0
51 52 53 0
52 53 54 0
53 54 55 0
54 55 56 0
55 56 57 0
56 57 58 0
57 58 59 0
58 59 60 0
59 60 61 0
60 61 62 0
61 62 63 0
62 63 64 0
63 64 65 0
64 65 66 0
65 66 67 0
66 67 68 0
67 68 69 0
68 69 70 0
69 70 71 0
70 71 72 0
71 72 73 0
72 73 74 0
73 74 75 0
74 75 76 0
75 76 77 0
76 77 78 0
77 78 79 0
78 79 80 0
79 80 81 0
80 81 82 0
81 82 83 0
82 83 84 0
83 84 85 0
84 85 86 0
85 86 87 0
86 87 88 0
87 88 89 0
88 89 90 0
89 90 91 0
90 91 92 0
91 92 93 0
92 93 94 0
93 94 95 0
94 95 96 0
95 96 97 0
96 97 98 0
97 98 99 0
98 99 100 0
99 100 101 0
100 101 102 0
101 102 103 0
102 103 104 0
103 104 105 0
104 105 106 0
105 106 107 0
106 107 108 0
107 108 109 0
108 109 110 0
109 110 111 0
110 111 112 0
111 112 113 0
112 113 114 0
113 114 115 0
114 115 116 0
115 116 117 0
116 117 118 0
117 118 119 0
118 119 120 0
119 120 121 0
120 121 122 0
121 122 123 0
122 123 124 0
123 124 125 0
124 125 126 0
125 126 127 0
126 127 128 0
127 128 129 0
128 129 130 0
129 130 131 0
130 131 132 0
131 132 133 0
132 133 134 0
133 134 135 0
134 135 136 0
135 136 137 0
136 137 138 0
137 138 139 0
138 139 140 0
139 140 141 0
140 141 142 0
141 142 143 0
142 143 144 0
143 144 145 0
144 145 146 0
145 146 147 0
146 147 148 0
147 148 149 0
148 149 150 0
149 150 151 0
150 151 152 0
151 152 153 0
152 153 154 0
153 154 155 0
154 155 156 0
155 156 157 0
156 157 158 0
157 158 159 0
158 159 160 0
1 3 5 0
2 4 6 0
3 5 7 0
4 6 8 0
5 7 9 0
6 8 10 0
7 9 11 0
8 10 12 0
9 11 13 0
10 12 14 0
11 13 15 0
12 14 16 0
13 15 17 0
14 16 18 0
15 17 19 0
16 18 20 0
17 19 21 0
18 20 22 0
19 21 23 0
20 22 24 0
21 23 25 0
22 24 26 0
23 25 27 0
24 26 28 0
25 27 29 0
26 28 30 0
27 29 31 0
28 30 32 0
29 31 33 0
30 32 34 0
31 33 35 0
32 34 36 0
33 35 37 0
34 36 38 0
35 37 39 0
36 38 40 0
37 39 41 0
38 40 42 0
39 41 43 0
40 42 44 0
41 43 45 0
42 44 46 0
43 45 47 0
44 46 48 0
45 47 49 0
46 48 50 0
47 49 51 0
48 50 52 0
49 51 53 0
50 52 54 0
51 53 55 0
52 54 56 0
53 55 57 0
54 56 58 0
55 57 59 0
56 58 60 0
57 59 61 0
58 60 62 0
59 61 63 0
60 62 64 0
61 63 65 0
62 64 66 0
63 65 67 0
64 66 68 0
65 67 69 0
66 68 70 0
67 69 71 0
68 70 72 0
69 71 73 0
70 72 74 0
71 73 75 0
72 74 76 0
73 75 77 0
74 76 78 0
75 77 79 0
76 78 80 0
77 79 81 0
78 80 82 0
79 81 83 0
80 82 84 0
81 83 85 0
82 84 86 0
83 85 87 0
84 86 88 0
85 87 89 0
86 88 90 0
87 89 91 0
88 90 92 0
89 91 93 0
90 92 94 0
91 93 95 0
92 94 96 0
93 95 97 0
94 96 98 0
95 97 99 0
96 98 100 0
97 99 101 0
98 100 102 0
99 101 103 0
100 102 104 0
101 103 105 0
102 104 106 0
103 105 107 0
104 106 108 0
105 107 109 0
106 108 110 0
107 109 111 0
108 110 112 0
109 111 113 0
110 112 114 0
111 113 115 0
112 114 116 0
113 115 117 0
114 116 118 0
115 117 119 0
116 118 120 0
117 119 121 0
118 120 122 0
119 121 123 0
120 122 124 0
121 123 125 0
122 124 126 0
123 125 127 0
124 126 128 0
125 127 129 0
126 128 130 0
127 129 131 0
128 130 132 0
129 131 133 0
130 132 134 0
131 133 135 0
132 134 136 0
133 135 137 0
134 136 138 0
135 137 139 0
136 138 140 0
137 139 141 0
138 140 142 0
139 141 143 0
140 142 144 0
141 143 145 0
142 144 146 0
143 145 147 0
144 146 148 0
145 147 149 0
146 148 150 0
147 149 151 0
148 150 152 0
149 151 153 0
150 152 154 0
151 153 155 0
152 154 156 0
153 155 157 0
154 156 158 0
155 157 159 0
156 158 160 0
1 4 7 0
2 5 8 0
3 6 9 0
4 7 10 0
5 8 11 0
6 9 12 0
7 10 13 0
8 11 14 0
9 12 15 0
10 13 16 0
11 14 17 0
12 15 18 0
13 16 19 0
14 17 20 0
15 18 21 0
16 19 22 0
17 20 23 0
18 21 24 0
19 22 25 0
20 23 26 0
21 24 27 0
22 25 28 0
23 26 29 0
24 27 30 0
25 28 31 0
26 29 32 0
27 30 33 0
28 31 34 0
29 32 35 0
30 33 36 0
31 34 37 0
32 35 38 0
33 36 39 0
34 37 40 0
35 38 41 0
36 39 42 0
37 40 43 0
38 41 44 0
39 42 45 0
40 43 46 0
41 44 47 0
42 45 48 0
43 46 49 0
44 47 50 0
45 48 51 0
46 49 52 0
47 50 53 0
48 51 54 0
49 52 55 0
50 53 56 0
51 54 57 0
52 55 58 0
53 56 59 0
54 57 60 0
55 58 61 0
56 59 62 0
57 60 63 0
58 61 64 0
59 62 65 0
60 63 66 0
61 64 67 0
62 65 68 0
63 66 69 0
64 67 70 0
65 68 71 0
66 69 72 0
67 70 73 0
68 71 74 0
69 72 75 0
70 73 76 0
71 74 77 0
72 75 78 0
73 76 79 0
74 77 80 0
75 78 81 0
76 79 82 0
77 80 83 0
78 81 84 0
79 82 85 0
80 83 86 0
81 84 87 0
82 85 88 0
83 86 89 0
84 87 90 0
85 88 91 0
86 89 92 0
87 90 93 0
88 91 94 0
89 92 95 0
90 93 96 0
91 94 97 0
92 95 98 0
93 96 99 0
94 97 100 0
95 98 101 0
96 99 102 0
97 100 103 0
98 101 104 0
99 102 105 0
100 103 106 0
101 104 107 0
102 105 108 0
103 106 109 0
104 107 110 0
105 108 111 0
106 109 112 0
107 110 113 0
108 111 114 0
109 112 115 0
110 113 116 0
111 114 117 0
112 115 118 0
113 116 119 0
114 117 120 0
115 118 121 0
116 119 122 0
117 120 123 0
118 121 124 0
119 122 125 0
120 123 126 0
121 124 127 0
122 125 128 0
123 126 129 0
124 127 130 0
125 128 131 0
126 129 132 0
127 130 133 0
128 131 134 0
129 132 135 0
130 133 136 0
131 134 137 0
132 135 138 0
133 136 139 0
134 137 140 0
135 138 141 0
136 139 142 0
137 140 143 0
138 141 144 0
139 142 145 0
140 143 146 0
141 144 147 0
142 145 148 0
143 146 149 0
144 147 150 0
145 148 151 0
146 149 152 0
147 150 153 0
148 151 154 0
149 152 155 0
150 153 156 0
151 154 157 0
152 155 158 0
153 156 159 0
154 157 160 0
1 5 9 0
2 6 10 0
3 7 11 0
4 8 12 0
5 9 13 0
6 10 14 0
7 11 15 0
8 12 16 0
9 13 17 0
10 14 18 0
11 15 19 0
12 16 20 0
13 17 21 0
14 18 22 0
15 19 23 0
16 20 24 0
17 21 25 0
18 22 26 0
19 23 27 0
20 24 28 0
21 25 29 0
22 26 30 0
23 27 31 0
24 28 32 0
25 29 33 0
26 30 34 0
27 31 35 0
28 32 36 0
29 33 37 0
30 34 38 0
31 35 39 0
32 36 40 0
33 37 41 0
34 38 42 0
35 39 43 0
36 40 44 0
37 41 45 0
38 42 46 0
39 43 47 0
40 44 48 0
41 45 49 0
42 46 50 0
43 47 51 0
44 48 52 0
45 49 53 0
46 50 54 0
47 51 55 0
48 52 56 0
49 53 57 0
50 54 58 0
51 55 59 0
52 56 60 0
53 57 61 0
54 58 62 0
55 59 63 0
56 60 64 0
57 61 65 0
58 62 66 0
59 63 67 0
60 64 68 0
61 65 69 0
62 66 70 0
63 67 71 0
64 68 72 0
65 69 73 0
66 70 74 0
67 71 75 0
68 72 76 0
69 73 77 0
70 74 78 0
71 75 79 0
72 76 80 0
73 77 81 0
74 78 82 0
75 79 83 0
76 80 84 0
77 81 85 0
78 82 86 0
79 83 87 0
80 84 88 0
81 85 89 0
82 86 90 0
83 87 91 0
84 88 92 0
85 89 93 0
86 90 94 0
87 91 95 0
88 92 96 0
89 93 97 0
90 94 98 0
91 95 99 0
92 96 100 0
93 97 101 0
94 98 102 0
95 99 103 0
96 100 104 0
97 101 105 0
98 102 106 0
99 103 107 0
100 104 108 0
101 105 109 0
102 106 110 0
103 107 111 0
104 108 112 0
105 109 113 0
106 110 114 0
107 111 115 0
108 112 116 0
109 113 117 0
110 114 118 0
111 115 119 0
112 116 120 0
113 117 121 0
114 118 122 0
115 119 123 0
116 120 124 0
117 121 125 0
118 122 126 0
119 123 127 0
120 124 128 0
121 125 129 0
122 126 130 0
123 127 131 0
124 128 132 0
125 129 133 0
126 130 134 0
127 131 135 0
128 132 136 0
129 133 137 0
130 134 138 0
131 135 139 0
132 136 140 0
133 137 141 0
134 138 142 0
135 139 143 0
136 140 144 0
137 141 145 0
138 142 146 0
139 143 147 0
140 144 148 0
141 145 149 0
142 146 150 0
143 147 151 0
144 148 152 0
145 149 153 0
146 150 154 0
147 151 155 0
148 152 156 0
149 153 157 0
150 154 158 0
151 155 159 0
152 156 160 0
1 6 11 0
2 7 12 0
3 8 13 0
4 9 14 0
5 10 15 0
6 11 16 0
7 12 17 0
8 13 18 0
9 14 19 0
10 15 20 0
11 16 21 0
12 17 22 0
13 18 23 0
14 19 24 0
15 20 25 0
16 21 26 0
17 22 27 0
18 23 28 0
19 24 29 0
20 25 30 0
21 26 31 0
22 27 32 0
23 28 33 0
24 29 34 0
25 30 35 0
26 31 36 0
27 32 37 0
28 33 38 0
29 34 39 0
30 35 40 0
31 36 41 0
32 37 42 0
33 38 43 0
34 39 44 0
35 40 45 0
36 41 46 0
37 42 47 0
38 43 48 0
39 44 49 0
40 45 50 0
41 46 51 0
42 47 52 0
43 48 53 0
44 49 54 0
45 50 55 0
46 51 56 0
47 52 57 0
48 53 58 0
49 54 59 0
50 55 60 0
51 56 61 0
52 57 62 0
53 58 63 0
54 59 64 0
55 60 65 0
56 61 66 0
57 62 67 0
58 63 68 0
59 64 69 0
60 65 70 0
61 66 71 0
62 67 72 0
63 68 73 0
64 69 74 0
65 70 75 0
66 71 76 0
67 72 77 0
68 73 78 0
69 74 79 0
70 75 80 0
71 76 81 0
72 77 82 0
73 78 83 0
74 79 84 0
75 80 85 0
76 81 86 0
77 82 87 0
78 83 88 0
79 84 89 0
80 85 90 0
81 86 91 0
82 87 92 0
83 88 93 0
84 89 94 0
85 90 95 0
86 91 96 0
87 92 97 0
88 93 98 0
89 94 99 0
90 95 100 0
91 96 101 0
92 97 102 0
93 98 103 0
94 99 104 0
95 100 105 0
96 101 106 0
97 102 107 0
98 103 108 0
99 104 109 0
100 105 110 0
101 106 111 0
102 107 112 0
103 108 113 0
104 109 114 0
105 110 115 0
106 111 116 0
107 112 117 0
108 113 118 0
109 114 119 0
110 115 120 0
111 116 121 0
112 117 122 0
113 118 123 0
114 119 124 0
115 120 125 0
116 121 126 0
117 122 127 0
118 123 128 0
119 124 129 0
120 125 130 0
121 126 131 0
122 127 132 0
123 128 133 0
124 129 134 0
125 130 135 0
126 131 136 0
127 132 137 0
128 133 138 0
129 134 139 0
130 135 140 0
131 136 141 0
132 137 142 0
133 138 143 0
134 139 144 0
135 140 145 0
136 141 146 0
137 142 147 0
138 143 148 0
139 144 149 0
140 145 150 0
141 146 151 0
142 147 152 0
143 148 153 0
144 149 154 0
145 150 155 0
146 151 156 0
147 152 157 0
148 153 158 0
149 154 159 0
150 155 160 0
1 7 13 0
2 8 14 0
3 9 15 0
4 10 16 0
5 11 17 0
6 12 18 0
7 13 19 0
8 14 20 0
9 15 21 0
10 16 22 0
11 17 23 0
12 18 24 0
13 19 25 0
14 20 26 0
15 21 27 0
16 22 28 0
17 23 29 0
18 24 30 0
19 25 31 0
20 26 32 0
21 27 33 0
22 28 34 0
23 29 35 0
24 30 36 0
25 31 37 0
26 32 38 0
27 33 39 0
28 34 40 0
29 35 41 0
30 36 42 0
31 37 43 0
32 38 44 0
33 39 45 0
34 40 46 0
35 41 47 0
36 42 48 0
37 43 49 0
38 44 50 0
39 45 51 0
40 46 52 0
41 47 53 0
42 48 54 0
43 49 55 0
44 50 56 0
45 51 57 0
46 52 58 0
47 53 59 0
48 54 60 0
49 55 61 0
50 56 62 0
51 57 63 0
52 58 64 0
53 59 65 0
54 60 66 0
55 61 67 0
56 62 68 0
57 63 69 0
58 64 70 0
59 65 71 0
60 66 72 0
61 67 73 0
62 68 74 0
63 69 75 0
64 70 76 0
65 71 77 0
66 72 78 0
67 73 79 0
68 74 80 0
69 75 81 0
70 76 82 0
71 77 83 0
72 78 84 0
73 79 85 0
74 80 86 0
75 81 87 0
76 82 88 0
77 83 89 0
78 84 90 0
79 85 91 0
80 86 92 0
81 87 93 0
82 88 94 0
83 89 95 0
84 90 96 0
85 91 97 0
86 92 98 0
87 93 99 0
88 94 100 0
89 95 101 0
90 96 102 0
91 97 103 0
92 98 104 0
93 99 105 0
94 100 106 0
95 101 107 0
96 102 108 0
97 103 109 0
98 104 110 0
99 105 111 0
100 106 112 0
101 107 113 0
102 108 114 0
103 109 115 0
104 110 116 0
105 111 117 0
106 112 118 0
107 113 119 0
108 114 120 0
109 115 121 0
110 116 122 0
111 117 123 0
112 118 124 0
113 119 125 0
114 120 126 0
115 121 127 0
116 122 128 0
117 123 129 0
118 124 130 0
119 125 131 0
120 126 132 0
121 127 133 0
122 128 134 0
123 129 135 0
124 130 136 0
125 131 137 0
126 132 138 0
127 133 139 0
128 134 140 0
129 135 141 0
130 136 142 0
131 137 143 0
132 138 144 0
133 139 145 0
134 140 146 0
135 141 147 0
136 142 148 0
137 143 149 0
138 144 150 0
139 145 151 0
140 146 152 0
141 147 153 0
142 148 154 0
143 149 155 0
144 150 156 0
145 151 157 0
146 152 158 0
147 153 159 0
148 154 160 0
1 8 15 0
2 9 16 0
3 10 17 0
4 11 18 0
5 12 19 0
6 13 20 0
7 14 21 0
8 15 22 0
9 16 23 0
10 17 24 0
11 18 25 0
12 19 26 0
13 20 27 0
14 21 28 0
15 22 29 0
16 23 30 0
17 24 31 0
18 25 32 0
19 26 33 0
20 27 34 0
21 28 35 0
22 29 36 0
23 30 37 0
24 31 38 0
25 32 39 0
26 33 40 0
27 34 41 0
28 35 42 0
29 36 43 0
30 37 44 0
31 38 45 0
32 39 46 0
33 40 47 0
34 41 48 0
35 42 49 0
36 43 50 0
37 44 51 0
38 45 52 0
39 46 53 0
40 47 54 0
41 48 55 0
42 49 56 0
43 50 57 0
44 51 58 0
45 52 59 0
46 53 60 0
47 54 61 0
48 55 62 0
49 56 63 0
50 57 64 0
51 58 65 0
52 59 66 0
53 60 67 0
54 61 68 0
55 62 69 0
56 63 70 0
57 64 71 0
58 65 72 0
59 66 73 0
60 67 74 0
61 68 75 0
62 69 76 0
63 70 77 0
64 71 78 0
65 72 79 0
66 73 80 0
67 74 81 0
68 75 82 0
69 76 83 0
70 77 84 0
71 78 85 0
72 79 86 0
73 80 87 0
74 81 88 0
75 82 89 0
76 83 90 0
77 84 91 0
78 85 92 0
79 86 93 0
80 87 94 0
81 88 95 0
82 89 96 0
83 90 97 0
84 91 98 0
85 92 99 0
86 93 100 0
87 94 101 0
88 95 102 0
89 96 103 0
90 97 104 0
91 98 105 0
92 99 106 0
93 100 107 0
94 101 108 0
95 102 109 0
96 103 110 0
97 104 111 0
98 105 112 0
99 106 113 0
100 107 114 0
101 108 115 0
102 109 116 0
103 110 117 0
104 111 118 0
105 112 119 0
106 113 120 0
107 114 121 0
108 115 122 0
109 116 123 0
110 117 124 0
111 118 125 0
112 119 126 0
113 120 127 0
114 121 128 0
115 122 129 0
116 123 130 0
117 124 131 0
118 125 132 0
119 126 133 0
120 127 134 0
121 128 135 0
122 129 136 0
123 130 137 0
124 131 138 0
125 132 139 0
126 133 140 0
127 134 141 0
128 135 142 0
129 136 143 0
130 137 144 0
131 138 145 0
132 139 146 0
133 140 147 0
134 141 148 0
135 142 149 0
136 143 150 0
137 144 151 0
138 145 152 0
139 146 153 0
140 147 154 0
141 148 155 0
142 149 156 0
143 150 157 0
144 151 158 0
145 152 159 0
146 153 160 0
1 9 17 0
2 10 18 0
3 11 19 0
4 12 20 0
5 13 21 0
6 14 22 0
7 15 23 0
8 16 24 0
9 17 25 0
10 18 26 0
11 19 27 0
12 20 28 0
13 21 29 0
14 22 30 0
15 23 31 0
16 24 32 0
17 25 33 0
18 26 34 0
19 27 35 0
20 28 36 0
21 29 37 0
22 30 38 0
23 31 39 0
24 32 40 0
25 33 41 0
26 34 42 0
27 35 43 0
28 36 44 0
29 37 45 0
30 38 46 0
31 39 47 0
32 40 48 0
33 41 49 0
34 42 50 0
35 43 51 0
36 44 52 0
37 45 53 0
38 46 54 0
39 47 55 0
40 48 56 0
41 49 57 0
42 50 58 0
43 51 59 0
44 52 60 0
45 53 61 0
46 54 62 0
47 55 63 0
48 56 64 0
49 57 65 0
50 58 66 0
51 59 67 0
52 60 68 0
53 61 69 0
54 62 70 0
55 63 71 0
56 64 72 0
57 65 73 0
58 66 74 0
59 67 75 0
60 68 76 0
61 69 77 0
62 70 78 0
63 71 79 0
64 72 80 0
65 73 81 0
66 74 82 0
67 75 83 0
68 76 84 0
69 77 85 0
70 78 86 0
71 79 87 0
72 80 88 0
73 81 89 0
74 82 90 0
75 83 91 0
76 84 92 0
77 85 93 0
78 86 94 0
79 87 95 0
80 88 96 0
81 89 97 0
82 90 98 0
83 91 99 0
84 92 100 0
85 93 101 0
86 94 102 0
87 95 103 0
88 96 104 0
89 97 105 0
90 98 106 0
91 99 107 0
92 100 108 0
93 101 109 0
94 102 110 0
95 103 111 0
96 104 112 0
97 105 113 0
98 106 114 0
99 107 115 0
100 108 116 0
101 109 117 0
102 110 118 0
103 111 119 0
104 112 120 0
105 113 121 0
106 114 122 0
107 115 123 0
108 116 124 0
109 117 125 0
110 118 126 0
111 119 127 0
112 120 128 0
113 121 129 0
114 122 130 0
115 123 131 0
116 124 132 0
117 125 133 0
118 126 134 0
119 127 135 0
120 128 136 0
121 129 137 0
122 130 138 0
123 131 139 0
124 132 140 0
125 133 141 0
126 134 142 0
127 135 143 0
128 136 144 0
129 137 145 0
130 138 146 0
131 139 147 0
132 140 148 0
133 141 149 0
134 142 150 0
135 143 151 0
136 144 152 0
137 145 153 0
138 146 154 0
139 147 155 0
140 148 156 0
141 149 157 0
142 150 158 0
143 151 159 0
144 152 160 0
1 10 19 0
2 11 20 0
3 12 21 0
4 13 22 0
5 14 23 0
6 15 24 0
7 16 25 0
8 17 26 0
9 18 27 0
10 19 28 0
11 20 29 0
12 21 30 0
13 22 31 0
14 23 32 0
15 24 33 0
16 25 34 0
17 26 35 0
18 27 36 0
19 28 37 0
20 29 38 0
21 30 39 0
22 31 40 0
23 32 41 0
24 33 42 0
25 34 43 0
26 35 44 0
27 36 45 0
28 37 46 0
29 38 47 0
30 39 48 0
31 40 49 0
32 41 50 0
33 42 51 0
34 43 52 0
35 44 53 0
36 45 54 0
37 46 55 0
38 47 56 0
39 48 57 0
40 49 58 0
41 50 59 0
42 51 60 0
43 52 61 0
44 53 62 0
45 54 63 0
46 55 64 0
47 56 65 0
48 57 66 0
49 58 67 0
50 59 68 0
51 60 69 0
52 61 70 0
53 62 71 0
54 63 72 0
55 64 73 0
56 65 74 0
57 66 75 0
58 67 76 0
59 68 77 0
60 69 78 0
61 70 79 0
62 71 80 0
63 72 81 0
64 73 82 0
65 74 83 0
66 75 84 0
67 76 85 0
68 77 86 0
69 78 87 0
70 79 88 0
71 80 89 0
72 81 90 0
73 82 91 0
74 83 92 0
75 84 93 0
76 85 94 0
77 86 95 0
78 87 96 0
79 88 97 0
80 89 98 0
81 90 99 0
82 91 100 0
83 92 101 0
84 93 102 0
85 94 103 0
86 95 104 0
87 96 105 0
88 97 106 0
89 98 107 0
90 99 108 0
91 100 109 0
92 101 110 0
93 102 111 0
94 103 112 0
95 104 113 0
96 105 114 0
97 106 115 0
98 107 116 0
99 108 117 0
100 109 118 0
101 110 119 0
102 111 120 0
103 112 121 0
104 113 122 0
105 114 123 0
106 115 124 0
107 116 125 0
108 117 126 0
109 118 127 0
110 119 128 0
111 120 129 0
112 121 130 0
113 122 131 0
114 123 132 0
115 124 133 0
116 125 134 0
117 126 135 0
118 127 136 0
119 128 137 0
120 129 138 0
121 130 139 0
122 131 140 0
123 132 141 0
124 133 142 0
125 134 143 0
126 135 144 0
127 136 145 0
128 137 146 0
129 138 147 0
130 139 148 0
131 140 149 0
132 141 150 0
133 142 151 0
134 143 152 0
135 144 153 0
136 145 154 0
137 146 155 0
138 147 156 0
139 148 157 0
140 149 158 0
141 150 159 0
142 151 160 0
1 11 21 0
2 12 22 0
3 13 23 0
4 14 24 0
5 15 25 0
6 16 26 0
7 17 27 0
8 18 28 0
9 19 29 0
10 20 30 0
11 21 31 0
12 22 32 0
13 23 33 0
14 24 34 0
15 25 35 0
16 26 36 0
17 27 37 0
18 28 38 0
19 29 39 0
20 30 40 0
21 31 41 0
22 32 42 0
23 33 43 0
24 34 44 0
25 35 45 0
26 36 46 0
27 37 47 0
28 38 48 0
29 39 49 0
30 40 50 0
31 41 51 0
32 42 52 0
33 43 53 0
34 44 54 0
35 45 55 0
36 46 56 0
37 47 57 0
38 48 58 0
39 49 59 0
40 50 60 0
41 51 61 0
42 52 62 0
43 53 63 0
44 54 64 0
45 55 65 0
46 56 66 0
47 57 67 0
48 58 68 0
49 59 69 0
50 60 70 0
51 61 71 0
52 62 72 0
53 63 73 0
54 64 74 0
55 65 75 0
56 66 76 0
57 67 77 0
58 68 78 0
59 69 79 0
60 70 80 0
61 71 81 0
62 72 82 0
63 73 83 0
64 74 84 0
65 75 85 0
66 76 86 0
67 77 87 0
68 78 88 0
69 79 89 0
70 80 90 0
71 81 91 0
72 82 92 0
73 83 93 0
74 84 94 0
75 85 95 0
76 86 96 0
77 87 97 0
78 88 98 0
79 89 99 0
80 90 100 0
81 91 101 0
82 92 102 0
83 93 103 0
84 94 104 0
85 95 105 0
86 96 106 0
87 97 107 0
88 98 108 0
89 99 109 0
90 100 110 0
91 101 111 0
92 102 112 0
93 103 113 0
94 104 114 0
95 105 115 0
96 106 116 0
97 107 117 0
98 108 118 0
99 109 119 0
100 110 120 0
101 111 121 0
102 112 122 0
103 113 123 0
104 114 124 0
105 115 125 0
106 116 126 0
107 117 127 0
108 118 128 0
109 119 129 0
110 120 130 0
111 121 131 0
112 122 132 0
113 123 133 0
114 124 134 0
115 125 135 0
116 126 136 0
117 127 137 0
118 128 138 0
119 129 139 0
120 130 140 0
121 131 141 0
122 132 142 0
123 133 143 0
124 134 144 0
125 135 145 0
126 136 146 0
127 137 147 0
128 138 148 0
129 139 149 0
130 140 150 0
131 141 151 0
132 142 152 0
133 143 153 0
134 144 154 0
135 145 155 0
136 146 156 0
137 147 157 0
138 148 158 0
139 149 159 0
140 150 160 0
1 12 23 0
2 13 24 0
3 14 25 0
4 15 26 0
5 16 27 0
6 17 28 0
7 18 29 0
8 19 30 0
9 20 31 0
10 21 32 0
11 22 33 0
12 23 34 0
13 24 35 0
14 25 36 0
15 26 37 0
16 27 38 0
17 28 39 0
18 29 40 0
19 30 41 0
20 31 42 0
21 32 43 0
22 33 44 0
23 34 45 0
24 35 46 0
25 36 47 0
26 37 48 0
27 38 49 0
28 39 50 0
29 40 51 0
30 41 52 0
31 42 53 0
32 43 54 0
33 44 55 0
34 45 56 0
35 46 57 0
36 47 58 0
37 48 59 0
38 49 60 0
39 50 61 0
40 51 62 0
41 52 63 0
42 53 64 0
43 54 65 0
44 55 66 0
45 56 67 0
46 57 68 0
47 58 69 0
48 59 70 0
49 60 71 0
50 61 72 0
51 62 73 0
52 63 74 0
53 64 75 0
54 65 76 0
55 66 77 0
56 67 78 0
57 68 79 0
58 69 80 0
59 70 81 0
60 71 82 0
61 72 83 0
62 73 84 0
63 74 85 0
64 75 86 0
65 76 87 0
66 77 88 0
67 78 89 0
68 79 90 0
69 80 91 0
70 81 92 0
71 82 93 0
72 83 94 0
73 84 95 0
74 85 96 0
75 86 97 0
76 87 98 0
77 88 99 0
78 89 100 0
79 90 101 0
80 91 102 0
81 92 103 0
82 93 104 0
83 94 105 0
84 95 106 0
85 96 107 0
86 97 108 0
87 98 109 0
88 99 110 0
89 100 111 0
90 101 112 0
91 102 113 0
92 103 114 0
93 104 115 0
94 105 116 0
95 106 117 0
96 107 118 0
97 108 119 0
98 109 120 0
99 110 121 0
100 111 122 0
101 112 123 0
102 113 124 0
103 114 125 0
104 115 126 0
105 116 127 0
106 117 128 0
107 118 129 0
108 119 130 0
109 120 131 0
110 121 132 0
111 122 133 0
112 123 134 0
113 124 135 0
114 125 136 0
115 126 137 0
116 127 138 0
117 128 139 0
118 129 140 0
119 130 141 0
120 131 142 0
121 132 143 0
122 133 144 0
123 134 145 0
124 135 146 0
125 136 147 0
126 137 148 0
127 138 149 0
128 139 150 0
129 140 151 0
130 141 152 0
131 142 153 0
132 143 154 0
133 144 155 0
134 145 156 0
135 146 157 0
136 147 158 0
137 148 159 0
138 149 160 0
1 13 25 0
2 14 26 0
3 15 27 0
4 16 28 0
5 17 29 0
6 18 30 0
7 19 31 0
8 20 32 0
9 21 33 0
10 22 34 0
11 23 35 0
12 24 36 0
13 25 37 0
14 26 38 0
15 27 39 0
16 28 40 0
17 29 41 0
18 30 42 0
19 31 43 0
20 32 44 0
21 33 45 0
22 34 46 0
23 35 47 0
24 36 48 0
25 37 49 0
26 38 50 0
27 39 51 0
28 40 52 0
29 41 53 0
30 42 54 0
31 43 55 0
32 44 56 0
33 45 57 0
34 46 58 0
35 47 59 0
36 48 60 0
37 49 61 0
38 50 62 0
39 51 63 0
40 52 64 0
41 53 65 0
42 54 66 0
43 55 67 0
44 56 68 0
45 57 69 0
46 58 70 0
47 59 71 0
48 60 72 0
49 61 73 0
50 62 74 0
51 63 75 0
52 64 76 0
53 65 77 0
54 66 78 0
55 67 79 0
56 68 80 0
57 69 81 0
58 70 82 0
59 71 83 0
60 72 84 0
61 73 85 0
62 74 86 0
63 75 87 0
64 76 88 0
65 77 89 0
66 78 90 0
67 79 91 0
68 80 92 0
69 81 93 0
70 82 94 0
71 83 95 0
72 84 96 0
73 85 97 0
74 86 98 0
75 87 99 0
76 88 100 0
77 89 101 0
78 90 102 0
79 91 103 0
80 92 104 0
81 93 105 0
82 94 106 0
83 95 107 0
84 96 108 0
85 97 109 0
86 98 110 0
87 99 111 0
88 100 112 0
89 101 113 0
90 102 114 0
91 103 115 0
92 104 116 0
93 105 117 0
94 106 118 0
95 107 119 0
96 108 120 0
97 109 121 0
98 110 122 0
99 111 123 0
100 112 124 0
101 113 125 0
102 114 126 0
103 115 127 0
104 116 128 0
105 117 129 0
106 118 130 0
107 119 131 0
108 120 132 0
109 121 133 0
110 122 134 0
111 123 135 0
112 124 136 0
113 125 137 0
114 126 138 0
115 127 139 0
116 128 140 0
117 129 141 0
118 130 142 0
119 131 143 0
120 132 144 0
121 133 145 0
122 134 146 0
123 135 147 0
124 136 148 0
125 137 149 0
126 138 150 0
127 139 151 0
128 140 152 0
129 141 153 0
130 142 154 0
131 143 155 0
132 144 156 0
133 145 157 0
134 146 158 0
135 147 159 0
136 148 160 0
1 14 27 0
2 15 28 0
3 16 29 0
4 17 30 0
5 18 31 0
6 19 32 0
7 20 33 0
8 21 34 0
9 22 35 0
10 23 36 0
11 24 37 0
12 25 38 0
13 26 39 0
14 27 40 0
15 28 41 0
16 29 42 0
17 30 43 0
18 31 44 0
19 32 45 0
20 33 46 0
21 34 47 0
22 35 48 0
23 36 49 0
24 37 50 0
25 38 51 0
26 39 52 0
27 40 53 0
28 41 54 0
29 42 55 0
30 43 56 0
31 44 57 0
32 45 58 0
33 46 59 0
34 47 60 0
35 48 61 0
36 49 62 0
37 50 63 0
38 51 64 0
39 52 65 0
40 53 66 0
41 54 67 0
42 55 68 0
43 56 69 0
44 57 70 0
45 58 71 0
46 59 72 0
47 60 73 0
48 61 74 0
49 62 75 0
50 63 76 0
51 64 77 0
52 65 78 0
53 66 79 0
54 67 80 0
55 68 81 0
56 69 82 0
57 70 83 0
58 71 84 0
59 72 85 0
60 73 86 0
61 74 87 0
62 75 88 0
63 76 89 0
64 77 90 0
65 78 91 0
66 79 92 0
67 80 93 0
68 81 94 0
69 82 95 0
70 83 96 0
71 84 97 0
72 85 98 0
73 86 99 0
74 87 100 0
75 88 101 0
76 89 102 0
77 90 103 0
78 91 104 0
79 92 105 0
80 93 106 0
81 94 107 0
82 95 108 0
83 96 109 0
84 97 110 0
85 98 111 0
86 99 112 0
87 100 113 0
88 101 114 0
89 102 115 0
90 103 116 0
91 104 117 0
92 105 118 0
93 106 119 0
94 107 120 0
95 108 121 0
96 109 122 0
97 110 123 0
98 111 124 0
99 112 125 0
100 113 126 0
101 114 127 0
102 115 128 0
103 116 129 0
104 117 130 0
105 118 131 0
106 119 132 0
107 120 133 0
108 121 134 0
109 122 135 0
110 123 136 0
111 124 137 0
112 125 138 0
113 126 139 0
114 127 140 0
115 128 141 0
116 129 142 0
117 130 143 0
118 131 144 0
119 132 145 0
120 133 146 0
121 134 147 0
122 135 148 0
123 136 149 0
124 137 150 0
125 138 151 0
126 139 152 0
127 140 153 0
128 141 154 0
129 142 155 0
130 143 156 0
131 144 157 0
132 145 158 0
133 146 159 0
134 147 160 0
1 15 29 0
2 16 30 0
3 17 31 0
4 18 32 0
5 19 33 0
6 20 34 0
7 21 35 0
8 22 36 0
9 23 37 0
10 24 38 0
11 25 39 0
12 26 40 0
13 27 41 0
14 28 42 0
15 29 43 0
16 30 44 0
17 31 45 0
18 32 46 0
19 33 47 0
20 34 48 0
21 35 49 0
22 36 50 0
23 37 51 0
24 38 52 0
25 39 53 0
26 40 54 0
27 41 55 0
28 42 56 0
29 43 57 0
30 44 58 0
31 45 59 0
32 46 60 0
33 47 61 0
34 48 62 0
35 49 63 0
36 50 64 0
37 51 65 0
38 52 66 0
39 53 67 0
40 54 68 0
41 55 69 0
42 56 70 0
43 57 71 0
44 58 72 0
45 59 73 0
46 60 74 0
47 61 75 0
48 62 76 0
49 63 77 0
50 64 78 0
51 65 79 0
52 66 80 0
53 67 81 0
54 68 82 0
55 69 83 0
56 70 84 0
57 71 85 0
58 72 86 0
59 73 87 0
60 74 88 0
61 75 89 0
62 76 90 0
63 77 91 0
64 78 92 0
65 79 93 0
66 80 94 0
67 81 95 0
68 82 96 0
69 83 97 0
70 84 98 0
71 85 99 0
72 86 100 0
73 87 101 0
74 88 102 0
75 89 103 0
76 90 104 0
77 91 105 0
78 92 106 0
79 93 107 0
80 94 108 0
81 95 109 0
82 96 110 0
83 97 111 0
84 98 112 0
85 99 113 0
86 100 114 0
87 101 115 0
88 102 116 0
89 103 117 0
90 104 118 0
91 105 119 0
92 106 120 0
93 107 121 0
94 108 122 0
95 109 123 0
96 110 124 0
97 111 125 0
98 112 126 0
99 113 127 0
100 114 128 0
101 115 129 0
102 116 130 0
103 117 131 0
104 118 132 0
105 119 133 0
106 120 134 0
107 121 135 0
108 122 136 0
109 123 137 0
110 124 138 0
111 125 139 0
112 126 140 0
113 127 141 0
114 128 142 0
115 129 143 0
116 130 144 0
117 131 145 0
118 132 146 0
119 133 147 0
120 134 148 0
121 135 149 0
122 136 150 0
123 137 151 0
124 138 152 0
125 139 153 0
126 140 154 0
127 141 155 0
128 142 156 0
129 143 157 0
130 144 158 0
131 145 159 0
132 146 160 0
1 16 31 0
2 17 32 0
3 18 33 0
4 19 34 0
5 20 35 0
6 21 36 0
7 22 37 0
8 23 38 0
9 24 39 0
10 25 40 0
11 26 41 0
12 27 42 0
13 28 43 0
14 29 44 0
15 30 45 0
16 31 46 0
17 32 47 0
18 33 48 0
19 34 49 0
20 35 50 0
21 36 51 0
22 37 52 0
23 38 53 0
24 39 54 0
25 40 55 0
26 41 56 0
27 42 57 0
28 43 58 0
29 44 59 0
30 45 60 0
31 46 61 0
32 47 62 0
33 48 63 0
34 49 64 0
35 50 65 0
36 51 66 0
37 52 67 0
38 53 68 0
39 54 69 0
40 55 70 0
41 56 71 0
42 57 72 0
43 58 73 0
44 59 74 0
45 60 75 0
46 61 76 0
47 62 77 0
48 63 78 0
49 64 79 0
50 65 80 0
51 66 81 0
52 67 82 0
53 68 83 0
54 69 84 0
55 70 85 0
56 71 86 0
57 72 87 0
58 73 88 0
59 74 89 0
60 75 90 0
61 76 91 0
62 77 92 0
63 78 93 0
64 79 94 0
65 80 95 0
66 81 96 0
67 82 97 0
68 83 98 0
69 84 99 0
70 85 100 0
71 86 101 0
72 87 102 0
73 88 103 0
74 89 104 0
75 90 105 0
76 91 106 0
77 92 107 0
78 93 108 0
79 94 109 0
80 95 110 0
81 96 111 0
82 97 112 0
83 98 113 0
84 99 114 0
85 100 115 0
86 101 116 0
87 102 117 0
88 103 118 0
89 104 119 0
90 105 120 0
91 106 121 0
92 107 122 0
93 108 123 0
94 109 124 0
95 110 125 0
96 111 126 0
97 112 127 0
98 113 128 0
99 114 129 0
100 115 130 0
101 116 131 0
102 117 132 0
103 118 133 0
104 119 134 0
105 120 135 0
106 121 136 0
107 122 137 0
108 123 138 0
109 124 139 0
110 125 140 0
111 126 141 0
112 127 142 0
113 128 143 0
114 129 144 0
115 130 145 0
116 131 146 0
117 132 147 0
118 133 148 0
119 134 149 0
120 135 150 0
121 136 151 0
122 137 152 0
123 138 153 0
124 139 154 0
125 140 155 0
126 141 156 0
127 142 157 0
128 143 158 0
129 144 159 0
130 145 160 0
1 17 33 0
2 18 34 0
3 19 35 0
4 20 36 0
5 21 37 0
6 22 38 0
7 23 39 0
8 24 40 0
9 25 41 0
10 26 42 0
11 27 43 0
12 28 44 0
13 29 45 0
14 30 46 0
15 31 47 0
16 32 48 0
17 33 49 0
18 34 50 0
19 35 51 0
20 36 52 0
21 37 53 0
22 38 54 0
23 39 55 0
24 40 56 0
25 41 57 0
26 42 58 0
27 43 59 0
28 44 60 0
29 45 61 0
30 46 62 0
31 47 63 0
32 48 64 0
33 49 65 0
34 50 66 0
35 51 67 0
36 52 68 0
37 53 69 0
38 54 70 0
39 55 71 0
40 56 72 0
41 57 73 0
42 58 74 0
43 59 75 0
44 60 76 0
45 61 77 0
46 62 78 0
47 63 79 0
48 64 80 0
49 65 81 0
50 66 82 0
51 67 83 0
52 68 84 0
53 69 85 0
54 70 86 0
55 71 87 0
56 72 88 0
57 73 89 0
58 74 90 0
59 75 91 0
60 76 92 0
61 77 93 0
62 78 94 0
63 79 95 0
64 80 96 0
65 81 97 0
66 82 98 0
67 83 99 0
68 84 100 0
69 85 101 0
70 86 102 0
71 87 103 0
72 88 104 0
73 89 105 0
74 90 106 0
75 91 107 0
76 92 108 0
77 93 109 0
78 94 110 0
79 95 111 0
80 96 112 0
81 97 113 0
82 98 114 0
83 99 115 0
84 100 116 0
85 101 117 0
86 102 118 0
87 103 119 0
88 104 120 0
89 105 121 0
90 106 122 0
91 107 123 0
92 108 124 0
93 109 125 0
94 110 126 0
95 111 127 0
96 112 128 0
97 113 129 0
98 114 130 0
99 115 131 0
100 116 132 0
101 117 133 0
102 118 134 0
103 119 135 0
104 120 136 0
105 121 137 0
106 122 138 0
107 123 139 0
108 124 140 0
109 125 141 0
110 126 142 0
111 127 143 0
112 128 144 0
113 129 145 0
114 130 146 0
115 131 147 0
116 132 148 0
117 133 149 0
118 134 150 0
119 135 151 0
120 136 152 0
121 137 153 0
122 138 154 0
123 139 155 0
124 140 156 0
125 141 157 0
126 142 158 0
127 143 159 0
128 144 160 0
1 18 35 0
2 19 36 0
3 20 37 0
4 21 38 0
5 22 39 0
6 23 40 0
7 24 41 0
8 25 42 0
9 26 43 0
10 27 44 0
11 28 45 0
12 29 46 0
13 30 47 0
14 31 48 0
15 32 49 0
16 33 50 0
17 34 51 0
18 35 52 0
19 36 53 0
20 37 54 0
21 38 55 0
22 39 56 0
23 40 57 0
24 41 58 0
25 42 59 0
26 43 60 0
27 44 61 0
28 45 62 0
29 46 63 0
30 47 64 0
31 48 65 0
32 49 66 0
33 50 67 0
34 51 68 0
35 52 69 0
36 53 70 0
37 54 71 0
38 55 72 0
39 56 73 0
40 57 74 0
41 58 75 0
42 59 76 0
43 60 77 0
44 61 78 0
45 62 79 0
46 63 80 0
47 64 81 0
48 65 82 0
49 66 83 0
50 67 84 0
51 68 85 0
52 69 86 0
53 70 87 0
54 71 88 0
55 72 89 0
56 73 90 0
57 74 91 0
58 75 92 0
59 76 93 0
60 77 94 0
61 78 95 0
62 79 96 0
63 80 97 0
64 81 98 0
65 82 99 0
66 83 100 0
67 84 101 0
68 85 102 0
69 86 103 0
70 87 104 0
71 88 105 0
72 89 106 0
73 90 107 0
74 91 108 0
75 92 109 0
76 93 110 0
77 94 111 0
78 95 112 0
79 96 113 0
80 97 114 0
81 98 115 0
82 99 116 0
83 100 117 0
84 101 118 0
85 102 119 0
86 103 120 0
87 104 121 0
88 105 122 0
89 106 123 0
90 107 124 0
91 108 125 0
92 109 126 0
93 110 127 0
94 111 128 0
95 112 129 0
96 113 130 0
97 114 131 0
98 115 132 0
99 116 133 0
100 117 134 0
101 118 135 0
102 119 136 0
103 120 137 0
104 121 138 0
105 122 139 0
106 123 140 0
107 124 141 0
108 125 142 0
109 126 143 0
110 127 144 0
111 128 145 0
112 129 146 0
113 130 147 0
114 131 148 0
115 132 149 0
116 133 150 0
117 134 151 0
118 135 152 0
119 136 153 0
120 137 154 0
121 138 155 0
122 139 156 0
123 140 157 0
124 141 158 0
125 142 159 0
126 143 160 0
1 19 37 0
2 20 38 0
3 21 39 0
4 22 40 0
5 23 41 0
6 24 42 0
7 25 43 0
8 26 44 0
9 27 45 0
10 28 46 0
11 29 47 0
12 30 48 0
13 31 49 0
14 32 50 0
15 33 51 0
16 34 52 0
17 35 53 0
18 36 54 0
19 37 55 0
20 38 56 0
21 39 57 0
22 40 58 0
23 41 59 0
24 42 60 0
25 43 61 0
26 44 62 0
27 45 63 0
28 46 64 0
29 47 65 0
30 48 66 0
31 49 67 0
32 50 68 0
33 51 69 0
34 52 70 0
35 53 71 0
36 54 72 0
37 55 73 0
38 56 74 0
39 57 75 0
40 58 76 0
41 59 77 0
42 60 78 0
43 61 79 0
44 62 80 0
45 63 81 0
46 64 82 0
47 65 83 0
48 66 84 0
49 67 85 0
50 68 86 0
51 69 87 0
52 70 88 0
53 71 89 0
54 72 90 0
55 73 91 0
56 74 92 0
57 75 93 0
58 76 94 0
59 77 95 0
60 78 96 0
61 79 97 0
62 80 98 0
63 81 99 0
64 82 100 0
65 83 101 0
66 84 102 0
67 85 103 0
68 86 104 0
69 87 105 0
70 88 106 0
71 89 107 0
72 90 108 0
73 91 109 0
74 92 110 0
75 93 111 0
76 94 112 0
77 95 113 0
78 96 114 0
79 97 115 0
80 98 116 0
81 99 117 0
82 100 118 0
83 101 119 0
84 102 120 0
85 103 121 0
86 104 122 0
87 105 123 0
88 106 124 0
89 107 125 0
90 108 126 0
91 109 127 0
92 110 128 0
93 111 129 0
94 112 130 0
95 113 131 0
96 114 132 0
97 115 133 0
98 116 134 0
99 117 135 0
100 118 136 0
101 119 137 0
102 120 138 0
103 121 139 0
104 122 140 0
105 123 141 0
106 124 142 0
107 125 143 0
108 126 144 0
109 127 145 0
110 128 146 0
111 129 147 0
112 130 148 0
113 131 149 0
114 132 150 0
115 133 151 0
116 134 152 0
117 135 153 0
118 136 154 0
119 137 155 0
120 138 156 0
121 139 157 0
122 140 158 0
123 141 159 0
124 142 160 0
1 20 39 0
2 21 40 0
3 22 41 0
4 23 42 0
5 24 43 0
6 25 44 0
7 26 45 0
8 27 46 0
9 28 47 0
10 29 48 0
11 30 49 0
12 31 50 0
13 32 51 0
14 33 52 0
15 34 53 0
16 35 54 0
17 36 55 0
18 37 56 0
19 38 57 0
20 39 58 0
21 40 59 0
22 41 60 0
23 42 61 0
24 43 62 0
25 44 63 0
26 45 64 0
27 46 65 0
28 47 66 0
29 48 67 0
30 49 68 0
31 50 69 0
32 51 70 0
33 52 71 0
34 53 72 0
35 54 73 0
36 55 74 0
37 56 75 0
38 57 76 0
39 58 77 0
40 59 78 0
41 60 79 0
42 61 80 0
43 62 81 0
44 63 82 0
45 64 83 0
46 65 84 0
47 66 85 0
48 67 86 0
49 68 87 0
50 69 88 0
51 70 89 0
52 71 90 0
53 72 91 0
54 73 92 0
55 74 93 0
56 75 94 0
57 76 95 0
58 77 96 0
59 78 97 0
60 79 98 0
61 80 99 0
62 81 100 0
63 82 101 0
64 83 102 0
65 84 103 0
66 85 104 0
67 86 105 0
68 87 106 0
69 88 107 0
70 89 108 0
71 90 109 0
72 91 110 0
73 92 111 0
74 93 112 0
75 94 113 0
76 95 114 0
77 96 115 0
78 97 116 0
79 98 117 0
80 99 118 0
81 100 119 0
82 101 120 0
83 102 121 0
84 103 122 0
85 104 123 0
86 105 124 0
87 106 125 0
88 107 126 0
89 108 127 0
90 109 128 0
91 110 129 0
92 111 130 0
93 112 131 0
94 113 132 0
95 114 133 0
96 115 134 0
97 116 135 0
98 117 136 0
99 118 137 0
100 119 138 0
101 120 139 0
102 121 140 0
103 122 141 0
104 123 142 0
105 124 143 0
106 125 144 0
107 126 145 0
108 127 146 0
109 128 147 0
110 129 148 0
111 130 149 0
112 131 150 0
113 132 151 0
114 133 152 0
115 134 153 0
116 135 154 0
117 136 155 0
118 137 156 0
119 138 157 0
120 139 158 0
121 140 159 0
122 141 160 0
1 21 41 0
2 22 42 0
3 23 43 0
4 24 44 0
5 25 45 0
6 26 46 0
7 27 47 0
8 28 48 0
9 29 49 0
10 30 50 0
11 31 51 0
12 32 52 0
13 33 53 0
14 34 54 0
15 35 55 0
16 36 56 0
17 37 57 0
18 38 58 0
19 39 59 0
20 40 60 0
21 41 61 0
22 42 62 0
23 43 63 0
24 44 64 0
25 45 65 0
26 46 66 0
27 47 67 0
28 48 68 0
29 49 69 0
30 50 70 0
31 51 71 0
32 52 72 0
33 53 73 0
34 54 74 0
35 55 75 0
36 56 76 0
37 57 77 0
38 58 78 0
39 59 79 0
40 60 80 0
41 61 81 0
42 62 82 0
43 63 83 0
44 64 84 0
45 65 85 0
46 66 86 0
47 67 87 0
48 68 88 0
49 69 89 0
50 70 90 0
51 71 91 0
52 72 92 0
53 73 93 0
54 74 94 0
55 75 95 0
56 76 96 0
57 77 97 0
58 78 98 0
59 79 99 0
60 80 100 0
61 81 101 0
62 82 102 0
63 83 103 0
64 84 104 0
65 85 105 0
66 86 106 0
67 87 107 0
68 88 108 0
69 89 109 0
70 90 110 0
71 91 111 0
72 92 112 0
73 93 113 0
74 94 114 0
75 95 115 0
76 96 116 0
77 97 117 0
78 98 118 0
79 99 119 0
80 100 120 0
81 101 121 0
82 102 122 0
83 103 123 0
84 104 124 0
85 105 125 0
86 106 126 0
87 107 127 0
88 108 128 0
89 109 129 0
90 110 130 0
91 111 131 0
92 112 132 0
93 113 133 0
94 114 134 0
95 115 135 0
96 116 136 0
97 117 137 0
98 118 138 0
99 119 139 0
100 120 140 0
101 121 141 0
102 122 142 0
103 123 143 0
104 124 144 0
105 125 145 0
106 126 146 0
107 127 147 0
108 128 148 0
109 129 149 0
110 130 150 0
111 131 151 0
112 132 152 0
113 133 153 0
114 134 154 0
115 135 155 0
116 136 156 0
117 137 157 0
118 138 158 0
119 139 159 0
120 140 160 0
1 22 43 0
2 23 44 0
3 24 45 0
4 25 46 0
5 26 47 0
6 27 48 0
7 28 49 0
8 29 50 0
9 30 51 0
10 31 52 0
11 32 53 0
12 33 54 0
13 34 55 0
14 35 56 0
15 36 57 0
16 37 58 0
17 38 59 0
18 39 60 0
19 40 61 0
20 41 62 0
21 42 63 0
22 43 64 0
23 44 65 0
24 45 66 0
25 46 67 0
26 47 68 0
27 48 69 0
28 49 70 0
29 50 71 0
30 51 72 0
31 52 73 0
32 53 74 0
33 54 75 0
34 55 76 0
35 56 77 0
36 57 78 0
37 58 79 0
38 59 80 0
39 60 81 0
40 61 82 0
41 62 83 0
42 63 84 0
43 64 85 0
44 65 86 0
45 66 87 0
46 67 88 0
47 68 89 0
48 69 90 0
49 70 91 0
50 71 92 0
51 72 93 0
52 73 94 0
53 74 95 0
54 75 96 0
55 76 97 0
56 77 98 0
57 78 99 0
58 79 100 0
59 80 101 0
60 81 102 0
61 82 103 0
62 83 104 0
63 84 105 0
64 85 106 0
65 86 107 0
66 87 108 0
67 88 109 0
68 89 110 0
69 90 111 0
70 91 112 0
71 92 113 0
72 93 114 0
73 94 115 0
74 95 116 0
75 96 117 0
76 97 118 0
77 98 119 0
78 99 120 0
79 100 121 0
80 101 122 0
81 102 123 0
82 103 124 0
83 104 125 0
84 105 126 0
85 106 127 0
86 107 128 0
87 108 129 0
88 109 130 0
89 110 131 0
90 111 132 0
91 112 133 0
92 113 134 0
93 114 135 0
94 115 136 0
95 116 137 0
96 117 138 0
97 118 139 0
98 119 140 0
99 120 141 0
100 121 142 0
101 122 143 0
102 123 144 0
103 124 145 0
104 125 146 0
105 126 147 0
106 127 148 0
107 128 149 0
108 129 150 0
109 130 151 0
110 131 152 0
111 132 153 0
112 133 154 0
113 134 155 0
114 135 156 0
115 136 157 0
116 137 158 0
117 138 159 0
118 139 160 0
1 23 45 0
2 24 46 0
3 25 47 0
4 26 48 0
5 27 49 0
6 28 50 0
7 29 51 0
8 30 52 0
9 31 53 0
10 32 54 0
11 33 55 0
12 34 56 0
13 35 57 0
14 36 58 0
15 37 59 0
16 38 60 0
17 39 61 0
18 40 62 0
19 41 63 0
20 42 64 0
21 43 65 0
22 44 66 0
23 45 67 0
24 46 68 0
25 47 69 0
26 48 70 0
27 49 71 0
28 50 72 0
29 51 73 0
30 52 74 0
31 53 75 0
32 54 76 0
33 55 77 0
34 56 78 0
35 57 79 0
36 58 80 0
37 59 81 0
38 60 82 0
39 61 83 0
40 62 84 0
41 63 85 0
42 64 86 0
43 65 87 0
44 66 88 0
45 67 89 0
46 68 90 0
47 69 91 0
48 70 92 0
49 71 93 0
50 72 94 0
51 73 95 0
52 74 96 0
53 75 97 0
54 76 98 0
55 77 99 0
56 78 100 0
57 79 101 0
58 80 102 0
59 81 103 0
60 82 104 0
61 83 105 0
62 84 106 0
63 85 107 0
64 86 108 0
65 87 109 0
66 88 110 0
67 89 111 0
68 90 112 0
69 91 113 0
70 92 114 0
71 93 115 0
72 94 116 0
73 95 117 0
74 96 118 0
75 97 119 0
76 98 120 0
77 99 121 0
78 100 122 0
79 101 123 0
80 102 124 0
81 103 125 0
82 104 126 0
83 105 127 0
84 106 128 0
85 107 129 0
86 108 130 0
87 109 131 0
88 110 132 0
89 111 133 0
90 112 134 0
91 113 135 0
92 114 136 0
93 115 137 0
94 116 138 0
95 117 139 0
96 118 140 0
97 119 141 0
98 120 142 0
99 121 143 0
100 122 144 0
101 123 145 0
102 124 146 0
103 125 147 0
104 126 148 0
105 127 149 0
106 128 150 0
107 129 151 0
108 130 152 0
109 131 153 0
110 132 154 0
111 133 155 0
112 134 156 0
113 135 157 0
114 136 158 0
115 137 159 0
116 138 160 0
1 24 47 0
2 25 48 0
3 26 49 0
4 27 50 0
5 28 51 0
6 29 52 0
7 30 53 0
8 31 54 0
9 32 55 0
10 33 56 0
11 34 57 0
12 35 58 0
13 36 59 0
14 37 60 0
15 38 61 0
16 39 62 0
17 40 63 0
18 41 64 0
19 42 65 0
20 43 66 0
21 44 67 0
22 45 68 0
23 46 69 0
24 47 70 0
25 48 71 0
26 49 72 0
27 50 73 0
28 51 74 0
29 52 75 0
30 53 76 0
31 54 77 0
32 55 78 0
33 56 79 0
34 57 80 0
35 58 81 0
36 59 82 0
37 60 83 0
38 61 84 0
39 62 85 0
40 63 86 0
41 64 87 0
42 65 88 0
43 66 89 0
44 67 90 0
45 68 91 0
46 69 92 0
47 70 93 0
48 71 94 0
49 72 95 0
50 73 96 0
51 74 97 0
52 75 98 0
53 76 99 0
54 77 100 0
55 78 101 0
56 79 102 0
57 80 103 0
58 81 104 0
59 82 105 0
60 83 106 0
61 84 107 0
62 85 108 0
63 86 109 0
64 87 110 0
65 88 111 0
66 89 112 0
67 90 113 0
68 91 114 0
69 92 115 0
70 93 116 0
71 94 117 0
72 95 118 0
73 96 119 0
74 97 120 0
75 98 121 0
76 99 122 0
77 100 123 0
78 101 124 0
79 102 125 0
80 103 126 0
81 104 127 0
82 105 128 0
83 106 129 0
84 107 130 0
85 108 131 0
86 109 132 0
87 110 133 0
88 111 134 0
89 112 135 0
90 113 136 0
91 114 137 0
92 115 138 0
93 116 139 0
94 117 140 0
95 118 141 0
96 119 142 0
97 120 143 0
98 121 144 0
99 122 145 0
100 123 146 0
101 124 147 0
102 125 148 0
103 126 149 0
104 127 150 0
105 128 151 0
106 129 152 0
107 130 153 0
108 131 154 0
109 132 155 0
110 133 156 0
111 134 157 0
112 135 158 0
113 136 159 0
114 137 160 0
1 25 49 0
2 26 50 0
3 27 51 0
4 28 52 0
5 29 53 0
6 30 54 0
7 31 55 0
8 32 56 0
9 33 57 0
10 34 58 0
11 35 59 0
12 36 60 0
13 37 61 0
14 38 62 0
15 39 63 0
16 40 64 0
17 41 65 0
18 42 66 0
19 43 67 0
20 44 68 0
21 45 69 0
22 46 70 0
23 47 71 0
24 48 72 0
25 49 73 0
26 50 74 0
27 51 75 0
28 52 76 0
29 53 77 0
30 54 78 0
31 55 79 0
32 56 80 0
33 57 81 0
34 58 82 0
35 59 83 0
36 60 84 0
37 61 85 0
38 62 86 0
39 63 87 0
40 64 88 0
41 65 89 0
42 66 90 0
43 67 91 0
44 68 92 0
45 69 93 0
46 70 94 0
47 71 95 0
48 72 96 0
49 73 97 0
50 74 98 0
51 75 99 0
52 76 100 0
53 77 101 0
54 78 102 0
55 79 103 0
56 80 104 0
57 81 105 0
58 82 106 0
59 83 107 0
60 84 108 0
61 85 109 0
62 86 110 0
63 87 111 0
64 88 112 0
65 89 113 0
66 90 114 0
67 91 115 0
68 92 116 0
69 93 117 0
70 94 118 0
71 95 119 0
72 96 120 0
73 97 121 0
74 98 122 0
75 99 123 0
76 100 124 0
77 101 125 0
78 102 126 0
79 103 127 0
80 104 128 0
81 105 129 0
82 106 130 0
83 107 131 0
84 108 132 0
85 109 133 0
86 110 134 0
87 111 135 0
88 112 136 0
89 113 137 0
90 114 138 0
91 115 139 0
92 116 140 0
93 117 141 0
94 118 142 0
95 119 143 0
96 120 144 0
97 121 145 0
98 122 146 0
99 123 147 0
100 124 148 0
101 125 149 0
102 126 150 0
103 127 151 0
104 128 152 0
105 129 153 0
106 130 154 0
107 131 155 0
108 132 156 0
109 133 157 0
110 134 158 0
111 135 159 0
112 136 160 0
1 26 51 0
2 27 52 0
3 28 53 0
4 29 54 0
5 30 55 0
6 31 56 0
7 32 57 0
8 33 58 0
9 34 59 0
10 35 60 0
11 36 61 0
12 37 62 0
13 38 63 0
14 39 64 0
15 40 65 0
16 41 66 0
17 42 67 0
18 43 68 0
19 44 69 0
20 45 70 0
21 46 71 0
22 47 72 0
23 48 73 0
24 49 74 0
25 50 75 0
26 51 76 0
27 52 77 0
28 53 78 0
29 54 79 0
30 55 80 0
31 56 81 0
32 57 82 0
33 58 83 0
34 59 84 0
35 60 85 0
36 61 86 0
37 62 87 0
38 63 88 0
39 64 89 0
40 65 90 0
41 66 91 0
42 67 92 0
43 68 93 0
44 69 94 0
45 70 95 0
46 71 96 0
47 72 97 0
48 73 98 0
49 74 99 0
50 75 100 0
51 76 101 0
52 77 102 0
53 78 103 0
54 79 104 0
55 80 105 0
56 81 106 0
57 82 107 0
58 83 108 0
59 84 109 0
60 85 110 0
61 86 111 0
62 87 112 0
63 88 113 0
64 89 114 0
65 90 115 0
66 91 116 0
67 92 117 0
68 93 118 0
69 94 119 0
70 95 120 0
71 96 121 0
72 97 122 0
73 98 123 0
74 99 124 0
75 100 125 0
76 101 126 0
77 102 127 0
78 103 128 0
79 104 129 0
80 105 130 0
81 106 131 0
82 107 132 0
83 108 133 0
84 109 134 0
85 110 135 0
86 111 136 0
87 112 137 0
88 113 138 0
89 114 139 0
90 115 140 0
91 116 141 0
92 117 142 0
93 118 143 0
94 119 144 0
95 120 145 0
96 121 146 0
97 122 147 0
98 123 148 0
99 124 149 0
100 125 150 0
101 126 151 0
102 127 152 0
103 128 153 0
104 129 154 0
105 130 155 0
106 131 156 0
107 132 157 0
108 133 158 0
109 134 159 0
110 135 160 0
1 27 53 0
2 28 54 0
3 29 55 0
4 30 56 0
5 31 57 0
6 32 58 0
7 33 59 0
8 34 60 0
9 35 61 0
10 36 62 0
11 37 63 0
12 38 64 0
13 39 65 0
14 40 66 0
15 41 67 0
16 42 68 0
17 43 69 0
18 44 70 0
19 45 71 0
20 46 72 0
21 47 73 0
22 48 74 0
23 49 75 0
24 50 76 0
25 51 77 0
26 52 78 0
27 53 79 0
28 54 80 0
29 55 81 0
30 56 82 0
31 57 83 0
32 58 84 0
33 59 85 0
34 60 86 0
35 61 87 0
36 62 88 0
37 63 89 0
38 64 90 0
39 65 91 0
40 66 92 0
41 67 93 0
42 68 94 0
43 69 95 0
44 70 96 0
45 71 97 0
46 72 98 0
47 73 99 0
48 74 100 0
49 75 101 0
50 76 102 0
51 77 103 0
52 78 104 0
53 79 105 0
54 80 106 0
55 81 107 0
56 82 108 0
57 83 109 0
58 84 110 0
59 85 111 0
60 86 112 0
61 87 113 0
62 88 114 0
63 89 115 0
64 90 116 0
65 91 117 0
66 92 118 0
67 93 119 0
68 94 120 0
69 95 121 0
70 96 122 0
71 97 123 0
72 98 124 0
73 99 125 0
74 100 126 0
75 101 127 0
76 102 128 0
77 103 129 0
78 104 130 0
79 105 131 0
80 106 132 0
81 107 133 0
82 108 134 0
83 109 135 0
84 110 136 0
85 111 137 0
86 112 138 0
87 113 139 0
88 114 140 0
89 115 141 0
90 116 142 0
91 117 143 0
92 118 144 0
93 119 145 0
94 120 146 0
95 121 147 0
96 122 148 0
97 123 149 0
98 124 150 0
99 125 151 0
100 126 152 0
101 127 153 0
102 128 154 0
103 129 155 0
104 130 156 0
105 131 157 0
106 132 158 0
107 133 159 0
108 134 160 0
1 28 55 0
2 29 56 0
3 30 57 0
4 31 58 0
5 32 59 0
6 33 60 0
7 34 61 0
8 35 62 0
9 36 63 0
10 37 64 0
11 38 65 0
12 39 66 0
13 40 67 0
14 41 68 0
15 42 69 0
16 43 70 0
17 44 71 0
18 45 72 0
19 46 73 0
20 47 74 0
21 48 75 0
22 49 76 0
23 50 77 0
24 51 78 0
25 52 79 0
26 53 80 0
27 54 81 0
28 55 82 0
29 56 83 0
30 57 84 0
31 58 85 0
32 59 86 0
33 60 87 0
34 61 88 0
35 62 89 0
36 63 90 0
37 64 91 0
38 65 92 0
39 66 93 0
40 67 94 0
41 68 95 0
42 69 96 0
43 70 97 0
44 71 98 0
45 72 99 0
46 73 100 0
47 74 101 0
48 75 102 0
49 76 103 0
50 77 104 0
51 78 105 0
52 79 106 0
53 80 107 0
54 81 108 0
55 82 109 0
56 83 110 0
57 84 111 0
58 85 112 0
59 86 113 0
60 87 114 0
61 88 115 0
62 89 116 0
63 90 117 0
64 91 118 0
65 92 119 0
66 93 120 0
67 94 121 0
68 95 122 0
69 96 123 0
70 97 124 0
71 98 125 0
72 99 126 0
73 100 127 0
74 101 128 0
75 102 129 0
76 103 130 0
77 104 131 0
78 105 132 0
79 106 133 0
80 107 134 0
81 108 135 0
82 109 136 0
83 110 137 0
84 111 138 0
85 112 139 0
86 113 140 0
87 114 141 0
88 115 142 0
89 116 143 0
90 117 144 0
91 118 145 0
92 119 146 0
93 120 147 0
94 121 148 0
95 122 149 0
96 123 150 0
97 124 151 0
98 125 152 0
99 126 153 0
100 127 154 0
101 128 155 0
102 129 156 0
103 130 157 0
104 131 158 0
105 132 159 0
106 133 160 0
1 29 57 0
2 30 58 0
3 31 59 0
4 32 60 0
5 33 61 0
6 34 62 0
7 35 63 0
8 36 64 0
9 37 65 0
10 38 66 0
11 39 67 0
12 40 68 0
13 41 69 0
14 42 70 0
15 43 71 0
16 44 72 0
17 45 73 0
18 46 74 0
19 47 75 0
20 48 76 0
21 49 77 0
22 50 78 0
23 51 79 0
24 52 80 0
25 53 81 0
26 54 82 0
27 55 83 0
28 56 84 0
29 57 85 0
30 58 86 0
31 59 87 0
32 60 88 0
33 61 89 0
34 62 90 0
35 63 91 0
36 64 92 0
37 65 93 0
38 66 94 0
39 67 95 0
40 68 96 0
41 69 97 0
42 70 98 0
43 71 99 0
44 72 100 0
45 73 101 0
46 74 102 0
47 75 103 0
48 76 104 0
49 77 105 0
50 78 106 0
51 79 107 0
52 80 108 0
53 81 109 0
54 82 110 0
55 83 111 0
56 84 112 0
57 85 113 0
58 86 114 0
59 87 115 0
60 88 116 0
61 89 117 0
62 90 118 0
63 91 119 0
64 92 120 0
65 93 121 0
66 94 122 0
67 95 123 0
68 96 124 0
69 97 125 0
70 98 126 0
71 99 127 0
72 100 128 0
73 101 129 0
74 102 130 0
75 103 131 0
76 104 132 0
77 105 133 0
78 106 134 0
79 107 135 0
80 108 136 0
81 109 137 0
82 110 138 0
83 111 139 0
84 112 140 0
85 113 141 0
86 114 142 0
87 115 143 0
88 116 144 0
89 117 145 0
90 118 146 0
91 119 147 0
92 120 148 0
93 121 149 0
94 122 150 0
95 123 151 0
96 124 152 0
97 125 153 0
98 126 154 0
99 127 155 0
100 128 156 0
101 129 157 0
102 130 158 0
103 131 159 0
104 132 160 0
1 30 59 0
2 31 60 0
3 32 61 0
4 33 62 0
5 34 63 0
6 35 64 0
7 36 65 0
8 37 66 0
9 38 67 0
10 39 68 0
11 40 69 0
12 41 70 0
13 42 71 0
14 43 72 0
15 44 73 0
16 45 74 0
17 46 75 0
18 47 76 0
19 48 77 0
20 49 78 0
21 50 79 0
22 51 80 0
23 52 81 0
24 53 82 0
25 54 83 0
26 55 84 0
27 56 85 0
28 57 86 0
29 58 87 0
30 59 88 0
31 60 89 0
32 61 90 0
33 62 91 0
34 63 92 0
35 64 93 0
36 65 94 0
37 66 95 0
38 67 96 0
39 68 97 0
40 69 98 0
41 70 99 0
42 71 100 0
43 72 101 0
44 73 102 0
45 74 103 0
46 75 104 0
47 76 105 0
48 77 106 0
49 78 107 0
50 79 108 0
51 80 109 0
52 81 110 0
53 82 111 0
54 83 112 0
55 84 113 0
56 85 114 0
57 86 115 0
58 87 116 0
59 88 117 0
60 89 118 0
61 90 119 0
62 91 120 0
63 92 121 0
64 93 122 0
65 94 123 0
66 95 124 0
67 96 125 0
68 97 126 0
69 98 127 0
70 99 128 0
71 100 129 0
72 101 130 0
73 102 131 0
74 103 132 0
75 104 133 0
76 105 134 0
77 106 135 0
78 107 136 0
79 108 137 0
80 109 138 0
81 110 139 0
82 111 140 0
83 112 141 0
84 113 142 0
85 114 143 0
86 115 144 0
87 116 145 0
88 117 146 0
89 118 147 0
90 119 148 0
91 120 149 0
92 121 150 0
93 122 151 0
94 123 152 0
95 124 153 0
96 125 154 0
97 126 155 0
98 127 156 0
99 128 157 0
100 129 158 0
101 130 159 0
102 131 160 0
1 31 61 0
2 32 62 0
3 33 63 0
4 34 64 0
5 35 65 0
6 36 66 0
7 37 67 0
8 38 68 0
9 39 69 0
10 40 70 0
11 41 71 0
12 42 72 0
13 43 73 0
14 44 74 0
15 45 75 0
16 46 76 0
17 47 77 0
18 48 78 0
19 49 79 0
20 50 80 0
21 51 81 0
22 52 82 0
23 53 83 0
24 54 84 0
25 55 85 0
26 56 86 0
27 57 87 0
28 58 88 0
29 59 89 0
30 60 90 0
31 61 91 0
32 62 92 0
33 63 93 0
34 64 94 0
35 65 95 0
36 66 96 0
37 67 97 0
38 68 98 0
39 69 99 0
40 70 100 0
41 71 101 0
42 72 102 0
43 73 103 0
44 74 104 0
45 75 105 0
46 76 106 0
47 77 107 0
48 78 108 0
49 79 109 0
50 80 110 0
51 81 111 0
52 82 112 0
53 83 113 0
54 84 114 0
55 85 115 0
56 86 116 0
57 87 117 0
58 88 118 0
59 89 119 0
60 90 120 0
61 91 121 0
62 92 122 0
63 93 123 0
64 94 124 0
65 95 125 0
66 96 126 0
67 97 127 0
68 98 128 0
69 99 129 0
70 100 130 0
71 101 131 0
72 102 132 0
73 103 133 0
74 104 134 0
75 105 135 0
76 106 136 0
77 107 137 0
78 108 138 0
79 109 139 0
80 110 140 0
81 111 141 0
82 112 142 0
83 113 143 0
84 114 144 0
85 115 145 0
86 116 146 0
87 117 147 0
88 118 148 0
89 119 149 0
90 120 150 0
91 121 151 0
92 122 152 0
93 123 153 0
94 124 154 0
95 125 155 0
96 126 156 0
97 127 157 0
98 128 158 0
99 129 159 0
100 130 160 0
1 32 63 0
2 33 64 0
3 34 65 0
4 35 66 0
5 36 67 0
6 37 68 0
7 38 69 0
8 39 70 0
9 40 71 0
10 41 72 0
11 42 73 0
12 43 74 0
13 44 75 0
14 45 76 0
15 46 77 0
16 47 78 0
17 48 79 0
18 49 80 0
19 50 81 0
20 51 82 0
21 52 83 0
22 53 84 0
23 54 85 0
24 55 86 0
25 56 87 0
26 57 88 0
27 58 89 0
28 59 90 0
29 60 91 0
30 61 92 0
31 62 93 0
32 63 94 0
33 64 95 0
34 65 96 0
35 66 97 0
36 67 98 0
37 68 99 0
38 69 100 0
39 70 101 0
40 71 102 0
41 72 103 0
42 73 104 0
43 74 105 0
44 75 106 0
45 76 107 0
46 77 108 0
47 78 109 0
48 79 110 0
49 80 111 0
50 81 112 0
51 82 113 0
52 83 114 0
53 84 115 0
54 85 116 0
55 86 117 0
56 87 118 0
57 88 119 0
58 89 120 0
59 90 121 0
60 91 122 0
61 92 123 0
62 93 124 0
63 94 125 0
64 95 126 0
65 96 127 0
66 97 128 0
67 98 129 0
68 99 130 0
69 100 131 0
70 101 132 0
71 102 133 0
72 103 134 0
73 104 135 0
74 105 136 0
75 106 137 0
76 107 138 0
77 108 139 0
78 109 140 0
79 110 141 0
80 111 142 0
81 112 143 0
82 113 144 0
83 114 145 0
84 115 146 0
85 116 147 0
86 117 148 0
87 118 149 0
88 119 150 0
89 120 151 0
90 121 152 0
91 122 153 0
92 123 154 0
93 124 155 0
94 125 156 0
95 126 157 0
96 127 158 0
97 128 159 0
98 129 160 0
1 33 65 0
2 34 66 0
3 35 67 0
4 36 68 0
5 37 69 0
6 38 70 0
7 39 71 0
8 40 72 0
9 41 73 0
10 42 74 0
11 43 75 0
12 44 76 0
13 45 77 0
14 46 78 0
15 47 79 0
16 48 80 0
17 49 81 0
18 50 82 0
19 51 83 0
20 52 84 0
21 53 85 0
22 54 86 0
23 55 87 0
24 56 88 0
25 57 89 0
26 58 90 0
27 59 91 0
28 60 92 0
29 61 93 0
30 62 94 0
31 63 95 0
32 64 96 0
33 65 97 0
34 66 98 0
35 67 99 0
36 68 100 0
37 69 101 0
38 70 102 0
39 71 103 0
40 72 104 0
41 73 105 0
42 74 106 0
43 75 107 0
44 76 108 0
45 77 109 0
46 78 110 0
47 79 111 0
48 80 112 0
49 81 113 0
50 82 114 0
51 83 115 0
52 84 116 0
53 85 117 0
54 86 118 0
55 87 119 0
56 88 120 0
57 89 121 0
58 90 122 0
59 91 123 0
60 92 124 0
61 93 125 0
62 94 126 0
63 95 127 0
64 96 128 0
65 97 129 0
66 98 130 0
67 99 131 0
68 100 132 0
69 101 133 0
70 102 134 0
71 103 135 0
72 104 136 0
73 105 137 0
74 106 138 0
75 107 139 0
76 108 140 0
77 109 141 0
78 110 142 0
79 111 143 0
80 112 144 0
81 113 145 0
82 114 146 0
83 115 147 0
84 116 148 0
85 117 149 0
86 118 150 0
87 119 151 0
88 120 152 0
89 121 153 0
90 122 154 0
91 123 155 0
92 124 156 0
93 125 157 0
94 126 158 0
95 127 159 0
96 128 160 0
1 34 67 0
2 35 68 0
3 36 69 0
4 37 70 0
5 38 71 0
6 39 72 0
7 40 73 0
8 41 74 0
9 42 75 0
10 43 76 0
11 44 77 0
12 45 78 0
13 46 79 0
14 47 80 0
15 48 81 0
16 49 82 0
17 50 83 0
18 51 84 0
19 52 85 0
20 53 86 0
21 54 87 0
22 55 88 0
23 56 89 0
24 57 90 0
25 58 91 0
26 59 92 0
27 60 93 0
28 61 94 0
29 62 95 0
30 63 96 0
31 64 97 0
32 65 98 0
33 66 99 0
34 67 100 0
35 68 101 0
36 69 102 0
37 70 103 0
38 71 104 0
39 72 105 0
40 73 106 0
41 74 107 0
42 75 108 0
43 76 109 0
44 77 110 0
45 78 111 0
46 79 112 0
47 80 113 0
48 81 114 0
49 82 115 0
50 83 116 0
51 84 117 0
52 85 118 0
53 86 119 0
54 87 120 0
55 88 121 0
56 89 122 0
57 90 123 0
58 91 124 0
59 92 125 0
60 93 126 0
61 94 127 0
62 95 128 0
63 96 129 0
64 97 130 0
65 98 131 0
66 99 132 0
67 100 133 0
68 101 134 0
69 102 135 0
70 103 136 0
71 104 137 0
72 105 138 0
73 106 139 0
74 107 140 0
75 108 141 0
76 109 142 0
77 110 143 0
78 111 144 0
79 112 145 0
80 113 146 0
81 114 147 0
82 115 148 0
83 116 149 0
84 117 150 0
85 118 151 0
86 119 152 0
87 120 153 0
88 121 154 0
89 122 155 0
90 123 156 0
91 124 157 0
92 125 158 0
93 126 159 0
94 127 160 0
1 35 69 0
2 36 70 0
3 37 71 0
4 38 72 0
5 39 73 0
6 40 74 0
7 41 75 0
8 42 76 0
9 43 77 0
10 44 78 0
11 45 79 0
12 46 80 0
13 47 81 0
14 48 82 0
15 49 83 0
16 50 84 0
17 51 85 0
18 52 86 0
19 53 87 0
20 54 88 0
21 55 89 0
22 56 90 0
23 57 91 0
24 58 92 0
25 59 93 0
26 60 94 0
27 61 95 0
28 62 96 0
29 63 97 0
30 64 98 0
31 65 99 0
32 66 100 0
33 67 101 0
34 68 102 0
35 69 103 0
36 70 104 0
37 71 105 0
38 72 106 0
39 73 107 0
40 74 108 0
41 75 109 0
42 76 110 0
43 77 111 0
44 78 112 0
45 79 113 0
46 80 114 0
47 81 115 0
48 82 116 0
49 83 117 0
50 84 118 0
51 85 119 0
52 86 120 0
53 87 121 0
54 88 122 0
55 89 123 0
56 90 124 0
57 91 125 0
58 92 126 0
59 93 127 0
60 94 128 0
61 95 129 0
62 96 130 0
63 97 131 0
64 98 132 0
65 99 133 0
66 100 134 0
67 101 135 0
68 102 136 0
69 103 137 0
70 104 138 0
71 105 139 0
72 106 140 0
73 107 141 0
74 108 142 0
75 109 143 0
76 110 144 0
77 111 145 0
78 112 146 0
79 113 147 0
80 114 148 0
81 115 149 0
82 116 150 0
83 117 151 0
84 118 152 0
85 119 153 0
86 120 154 0
87 121 155 0
88 122 156 0
89 123 157 0
90 124 158 0
91 125 159 0
92 126 160 0
1 36 71 0
2 37 72 0
3 38 73 0
4 39 74 0
5 40 75 0
6 41 76 0
7 42 77 0
8 43 78 0
9 44 79 0
10 45 80 0
11 46 81 0
12 47 82 0
13 48 83 0
14 49 84 0
15 50 85 0
16 51 86 0
17 52 87 0
18 53 88 0
19 54 89 0
20 55 90 0
21 56 91 0
22 57 92 0
23 58 93 0
24 59 94 0
25 60 95 0
26 61 96 0
27 62 97 0
28 63 98 0
29 64 99 0
30 65 100 0
31 66 101 0
32 67 102 0
33 68 103 0
34 69 104 0
35 70 105 0
36 71 106 0
37 72 107 0
38 73 108 0
39 74 109 0
40 75 110 0
41 76 111 0
42 77 112 0
43 78 113 0
44 79 114 0
45 80 115 0
46 81 116 0
47 82 117 0
48 83 118 0
49 84 119 0
50 85 120 0
51 86 121 0
52 87 122 0
53 88 123 0
54 89 124 0
55 90 125 0
56 91 126 0
57 92 127 0
58 93 128 0
59 94 129 0
60 95 130 0
61 96 131 0
62 97 132 0
63 98 133 0
64 99 134 0
65 100 135 0
66 101 136 0
67 102 137 0
68 103 138 0
69 104 139 0
70 105 140 0
71 106 141 0
72 107 142 0
73 108 143 0
74 109 144 0
75 110 145 0
76 111 146 0
77 112 147 0
78 113 148 0
79 114 149 0
80 115 150 0
81 116 151 0
82 117 152 0
83 118 153 0
84 119 154 0
85 120 155 0
86 121 156 0
87 122 157 0
88 123 158 0
89 124 159 0
90 125 160 0
1 37 73 0
2 38 74 0
3 39 75 0
4 40 76 0
5 41 77 0
6 42 78 0
7 43 79 0
8 44 80 0
9 45 81 0
10 46 82 0
11 47 83 0
12 48 84 0
13 49 85 0
14 50 86 0
15 51 87 0
16 52 88 0
17 53 89 0
18 54 90 0
19 55 91 0
20 56 92 0
21 57 93 0
22 58 94 0
23 59 95 0
24 60 96 0
25 61 97 0
26 62 98 0
27 63 99 0
28 64 100 0
29 65 101 0
30 66 102 0
31 67 103 0
32 68 104 0
33 69 105 0
34 70 106 0
35 71 107 0
36 72 108 0
37 73 109 0
38 74 110 0
39 75 111 0
40 76 112 0
41 77 113 0
42 78 114 0
43 79 115 0
44 80 116 0
45 81 117 0
46 82 118 0
47 83 119 0
48 84 120 0
49 85 121 0
50 86 122 0
51 87 123 0
52 88 124 0
53 89 125 0
54 90 126 0
55 91 127 0
56 92 128 0
57 93 129 0
58 94 130 0
59 95 131 0
60 96 132 0
61 97 133 0
62 98 134 0
63 99 135 0
64 100 136 0
65 101 137 0
66 102 138 0
67 103 139 0
68 104 140 0
69 105 141 0
70 106 142 0
71 107 143 0
72 108 144 0
73 109 145 0
74 110 146 0
75 111 147 0
76 112 148 0
77 113 149 0
78 114 150 0
79 115 151 0
80 116 152 0
81 117 153 0
82 118 154 0
83 119 155 0
84 120 156 0
85 121 157 0
86 122 158 0
87 123 159 0
88 124 160 0
1 38 75 0
2 39 76 0
3 40 77 0
4 41 78 0
5 42 79 0
6 43 80 0
7 44 81 0
8 45 82 0
9 46 83 0
10 47 84 0
11 48 85 0
12 49 86 0
13 50 87 0
14 51 88 0
15 52 89 0
16 53 90 0
17 54 91 0
18 55 92 0
19 56 93 0
20 57 94 0
21 58 95 0
22 59 96 0
23 60 97 0
24 61 98 0
25 62 99 0
26 63 100 0
27 64 101 0
28 65 102 0
29 66 103 0
30 67 104 0
31 68 105 0
32 69 106 0
33 70 107 0
34 71 108 0
35 72 109 0
36 73 110 0
37 74 111 0
38 75 112 0
39 76 113 0
40 77 114 0
41 78 115 0
42 79 116 0
43 80 117 0
44 81 118 0
45 82 119 0
46 83 120 0
47 84 121 0
48 85 122 0
49 86 123 0
50 87 124 0
51 88 125 0
52 89 126 0
53 90 127 0
54 91 128 0
55 92 129 0
56 93 130 0
57 94 131 0
58 95 132 0
59 96 133 0
60 97 134 0
61 98 135 0
62 99 136 0
63 100 137 0
64 101 138 0
65 102 139 0
66 103 140 0
67 104 141 0
68 105 142 0
69 106 143 0
70 107 144 0
71 108 145 0
72 109 146 0
73 110 147 0
74 111 148 0
75 112 149 0
76 113 150 0
77 114 151 0
78 115 152 0
79 116 153 0
80 117 154 0
81 118 155 0
82 119 156 0
83 120 157 0
84 121 158 0
85 122 159 0
86 123 160 0
1 39 77 0
2 40 78 0
3 41 79 0
4 42 80 0
5 43 81 0
6 44 82 0
7 45 83 0
8 46 84 0
9 47 85 0
10 48 86 0
11 49 87 0
12 50 88 0
13 51 89 0
14 52 90 0
15 53 91 0
16 54 92 0
17 55 93 0
18 56 94 0
19 57 95 0
20 58 96 0
21 59 97 0
22 60 98 0
23 61 99 0
24 62 100 0
25 63 101 0
26 64 102 0
27 65 103 0
28 66 104 0
29 67 105 0
30 68 106 0
31 69 107 0
32 70 108 0
33 71 109 0
34 72 110 0
35 73 111 0
36 74 112 0
37 75 113 0
38 76 114 0
39 77 115 0
40 78 116 0
41 79 117 0
42 80 118 0
43 81 119 0
44 82 120 0
45 83 121 0
46 84 122 0
47 85 123 0
48 86 124 0
49 87 125 0
50 88 126 0
51 89 127 0
52 90 128 0
53 91 129 0
54 92 130 0
55 93 131 0
56 94 132 0
57 95 133 0
58 96 134 0
59 97 135 0
60 98 136 0
61 99 137 0
62 100 138 0
63 101 139 0
64 102 140 0
65 103 141 0
66 104 142 0
67 105 143 0
68 106 144 0
69 107 145 0
70 108 146 0
71 109 147 0
72 110 148 0
73 111 149 0
74 112 150 0
75 113 151 0
76 114 152 0
77 115 153 0
78 116 154 0
79 117 155 0
80 118 156 0
81 119 157 0
82 120 158 0
83 121 159 0
84 122 160 0
1 40 79 0
2 41 80 0
3 42 81 0
4 43 82 0
5 44 83 0
6 45 84 0
7 46 85 0
8 47 86 0
9 48 87 0
10 49 88 0
11 50 89 0
12 51 90 0
13 52 91 0
14 53 92 0
15 54 93 0
16 55 94 0
17 56 95 0
18 57 96 0
19 58 97 0
20 59 98 0
21 60 99 0
22 61 100 0
23 62 101 0
24 63 102 0
25 64 103 0
26 65 104 0
27 66 105 0
28 67 106 0
29 68 107 0
30 69 108 0
31 70 109 0
32 71 110 0
33 72 111 0
34 73 112 0
35 74 113 0
36 75 114 0
37 76 115 0
38 77 116 0
39 78 117 0
40 79 118 0
41 80 119 0
42 81 120 0
43 82 121 0
44 83 122 0
45 84 123 0
46 85 124 0
47 86 125 0
48 87 126 0
49 88 127 0
50 89 128 0
51 90 129 0
52 91 130 0
53 92 131 0
54 93 132 0
55 94 133 0
56 95 134 0
57 96 135 0
58 97 136 0
59 98 137 0
60 99 138 0
61 100 139 0
62 101 140 0
63 102 141 0
64 103 142 0
65 104 143 0
66 105 144 0
67 106 145 0
68 107 146 0
69 108 147 0
70 109 148 0
71 110 149 0
72 111 150 0
73 112 151 0
74 113 152 0
75 114 153 0
76 115 154 0
77 116 155 0
78 117 156 0
79 118 157 0
80 119 158 0
81 120 159 0
82 121 160 0
1 41 81 0
2 42 82 0
3 43 83 0
4 44 84 0
5 45 85 0
6 46 86 0
7 47 87 0
8 48 88 0
9 49 89 0
10 50 90 0
11 51 91 0
12 52 92 0
13 53 93 0
14 54 94 0
15 55 95 0
16 56 96 0
17 57 97 0
18 58 98 0
19 59 99 0
20 60 100 0
21 61 101 0
22 62 102 0
23 63 103 0
24 64 104 0
25 65 105 0
26 66 106 0
27 67 107 0
28 68 108 0
29 69 109 0
30 70 110 0
31 71 111 0
32 72 112 0
33 73 113 0
34 74 114 0
35 75 115 0
36 76 116 0
37 77 117 0
38 78 118 0
39 79 119 0
40 80 120 0
41 81 121 0
42 82 122 0
43 83 123 0
44 84 124 0
45 85 125 0
46 86 126 0
47 87 127 0
48 88 128 0
49 89 129 0
50 90 130 0
51 91 131 0
52 92 132 0
53 93 133 0
54 94 134 0
55 95 135 0
56 96 136 0
57 97 137 0
58 98 138 0
59 99 139 0
60 100 140 0
61 101 141 0
62 102 142 0
63 103 143 0
64 104 144 0
65 105 145 0
66 106 146 0
67 107 147 0
68 108 148 0
69 109 149 0
70 110 150 0
71 111 151 0
72 112 152 0
73 113 153 0
74 114 154 0
75 115 155 0
76 116 156 0
77 117 157 0
78 118 158 0
79 119 159 0
80 120 160 0
1 42 83 0
2 43 84 0
3 44 85 0
4 45 86 0
5 46 87 0
6 47 88 0
7 48 89 0
8 49 90 0
9 50 91 0
10 51 92 0
11 52 93 0
12 53 94 0
13 54 95 0
14 55 96 0
15 56 97 0
16 57 98 0
17 58 99 0
18 59 100 0
19 60 101 0
20 61 102 0
21 62 103 0
22 63 104 0
23 64 105 0
24 65 106 0
25 66 107 0
26 67 108 0
27 68 109 0
28 69 110 0
29 70 111 0
30 71 112 0
31 72 113 0
32 73 114 0
33 74 115 0
34 75 116 0
35 76 117 0
36 77 118 0
37 78 119 0
38 79 120 0
39 80 121 0
40 81 122 0
41 82 123 0
42 83 124 0
43 84 125 0
44 85 126 0
45 86 127 0
46 87 128 0
47 88 129 0
48 89 130 0
49 90 131 0
50 91 132 0
51 92 133 0
52 93 134 0
53 94 135 0
54 95 136 0
55 96 137 0
56 97 138 0
57 98 139 0
58 99 140 0
59 100 141 0
60 101 142 0
61 102 143 0
62 103 144 0
63 104 145 0
64 105 146 0
65 106 147 0
66 107 148 0
67 108 149 0
68 109 150 0
69 110 151 0
70 111 152 0
71 112 153 0
72 113 154 0
73 114 155 0
74 115 156 0
75 116 157 0
76 117 158 0
77 118 159 0
78 119 160 0
1 43 85 0
2 44 86 0
3 45 87 0
4 46 88 0
5 47 89 0
6 48 90 0
7 49 91 0
8 50 92 0
9 51 93 0
10 52 94 0
11 53 95 0
12 54 96 0
13 55 97 0
14 56 98 0
15 57 99 0
16 58 100 0
17 59 101 0
18 60 102 0
19 61 103 0
20 62 104 0
21 63 105 0
22 64 106 0
23 65 107 0
24 66 108 0
25 67 109 0
26 68 110 0
27 69 111 0
28 70 112 0
29 71 113 0
30 72 114 0
31 73 115 0
32 74 116 0
33 75 117 0
34 76 118 0
35 77 119 0
36 78 120 0
37 79 121 0
38 80 122 0
39 81 123 0
40 82 124 0
41 83 125 0
42 84 126 0
43 85 127 0
44 86 128 0
45 87 129 0
46 88 130 0
47 89 131 0
48 90 132 0
49 91 133 0
50 92 134 0
51 93 135 0
52 94 136 0
53 95 137 0
54 96 138 0
55 97 139 0
56 98 140 0
57 99 141 0
58 100 142 0
59 101 143 0
60 102 144 0
61 103 145 0
62 104 146 0
63 105 147 0
64 106 148 0
65 107 149 0
66 108 150 0
67 109 151 0
68 110 152 0
69 111 153 0
70 112 154 0
71 113 155 0
72 114 156 0
73 115 157 0
74 116 158 0
75 117 159 0
76 118 160 0
1 44 87 0
2 45 88 0
3 46 89 0
4 47 90 0
5 48 91 0
6 49 92 0
7 50 93 0
8 51 94 0
9 52 95 0
10 53 96 0
11 54 97 0
12 55 98 0
13 56 99 0
14 57 100 0
15 58 101 0
16 59 102 0
17 60 103 0
18 61 104 0
19 62 105 0
20 63 106 0
21 64 107 0
22 65 108 0
23 66 109 0
24 67 110 0
25 68 111 0
26 69 112 0
27 70 113 0
28 71 114 0
29 72 115 0
30 73 116 0
31 74 117 0
32 75 118 0
33 76 119 0
34 77 120 0
35 78 121 0
36 79 122 0
37 80 123 0
38 81 124 0
39 82 125 0
40 83 126 0
41 84 127 0
42 85 128 0
43 86 129 0
44 87 130 0
45 88 131 0
46 89 132 0
47 90 133 0
48 91 134 0
49 92 135 0
50 93 136 0
51 94 137 0
52 95 138 0
53 96 139 0
54 97 140 0
55 98 141 0
56 99 142 0
57 100 143 0
58 101 144 0
59 102 145 0
60 103 146 0
61 104 147 0
62 105 148 0
63 106 149 0
64 107 150 0
65 108 151 0
66 109 152 0
67 110 153 0
68 111 154 0
69 112 155 0
70 113 156 0
71 114 157 0
72 115 158 0
73 116 159 0
74 117 160 0
1 45 89 0
2 46 90 0
3 47 91 0
4 48 92 0
5 49 93 0
6 50 94 0
7 51 95 0
8 52 96 0
9 53 97 0
10 54 98 0
11 55 99 0
12 56 100 0
13 57 101 0
14 58 102 0
15 59 103 0
16 60 104 0
17 61 105 0
18 62 106 0
19 63 107 0
20 64 108 0
21 65 109 0
22 66 110 0
23 67 111 0
24 68 112 0
25 69 113 0
26 70 114 0
27 71 115 0
28 72 116 0
29 73 117 0
30 74 118 0
31 75 119 0
32 76 120 0
33 77 121 0
34 78 122 0
35 79 123 0
36 80 124 0
37 81 125 0
38 82 126 0
39 83 127 0
40 84 128 0
41 85 129 0
42 86 130 0
43 87 131 0
44 88 132 0
45 89 133 0
46 90 134 0
47 91 135 0
48 92 136 0
49 93 137 0
50 94 138 0
51 95 139 0
52 96 140 0
53 97 141 0
54 98 142 0
55 99 143 0
56 100 144 0
57 101 145 0
58 102 146 0
59 103 147 0
60 104 148 0
61 105 149 0
62 106 150 0
63 107 151 0
64 108 152 0
65 109 153 0
66 110 154 0
67 111 155 0
68 112 156 0
69 113 157 0
70 114 158 0
71 115 159 0
72 116 160 0
1 46 91 0
2 47 92 0
3 48 93 0
4 49 94 0
5 50 95 0
6 51 96 0
7 52 97 0
8 53 98 0
9 54 99 0
10 55 100 0
11 56 101 0
12 57 102 0
13 58 103 0
14 59 104 0
15 60 105 0
16 61 106 0
17 62 107 0
18 63 108 0
19 64 109 0
20 65 110 0
21 66 111 0
22 67 112 0
23 68 113 0
24 69 114 0
25 70 115 0
26 71 116 0
27 72 117 0
28 73 118 0
29 74 119 0
30 75 120 0
31 76 121 0
32 77 122 0
33 78 123 0
34 79 124 0
35 80 125 0
36 81 126 0
37 82 127 0
38 83 128 0
39 84 129 0
40 85 130 0
41 86 131 0
42 87 132 0
43 88 133 0
44 89 134 0
45 90 135 0
46 91 136 0
47 92 137 0
48 93 138 0
49 94 139 0
50 95 140 0
51 96 141 0
52 97 142 0
53 98 143 0
54 99 144 0
55 100 145 0
56 101 146 0
57 102 147 0
58 103 148 0
59 104 149 0
60 105 150 0
61 106 151 0
62 107 152 0
63 108 153 0
64 109 154 0
65 110 155 0
66 111 156 0
67 112 157 0
68 113 158 0
69 114 159 0
70 115 160 0
1 47 93 0
2 48 94 0
3 49 95 0
4 50 96 0
5 51 97 0
6 52 98 0
7 53 99 0
8 54 100 0
9 55 101 0
10 56 102 0
11 57 103 0
12 58 104 0
13 59 105 0
14 60 106 0
15 61 107 0
16 62 108 0
17 63 109 0
18 64 110 0
19 65 111 0
20 66 112 0
21 67 113 0
22 68 114 0
23 69 115 0
24 70 116 0
25 71 117 0
26 72 118 0
27 73 119 0
28 74 120 0
29 75 121 0
30 76 122 0
31 77 123 0
32 78 124 0
33 79 125 0
34 80 126 0
35 81 127 0
36 82 128 0
37 83 129 0
38 84 130 0
39 85 131 0
40 86 132 0
41 87 133 0
42 88 134 0
43 89 135 0
44 90 136 0
45 91 137 0
46 92 138 0
47 93 139 0
48 94 140 0
49 95 141 0
50 96 142 0
51 97 143 0
52 98 144 0
53 99 145 0
54 100 146 0
55 101 147 0
56 102 148 0
57 103 149 0
58 104 150 0
59 105 151 0
60 106 152 0
61 107 153 0
62 108 154 0
63 109 155 0
64 110 156 0
65 111 157 0
66 112 158 0
67 113 159 0
68 114 160 0
1 48 95 0
2 49 96 0
3 50 97 0
4 51 98 0
5 52 99 0
6 53 100 0
7 54 101 0
8 55 102 0
9 56 103 0
10 57 104 0
11 58 105 0
12 59 106 0
13 60 107 0
14 61 108 0
15 62 109 0
16 63 110 0
17 64 111 0
18 65 112 0
19 66 113 0
20 67 114 0
21 68 115 0
22 69 116 0
23 70 117 0
24 71 118 0
25 72 119 0
26 73 120 0
27 74 121 0
28 75 122 0
29 76 123 0
30 77 124 0
31 78 125 0
32 79 126 0
33 80 127 0
34 81 128 0
35 82 129 0
36 83 130 0
37 84 131 0
38 85 132 0
39 86 133 0
40 87 134 0
41 88 135 0
42 89 136 0
43 90 137 0
44 91 138 0
45 92 139 0
46 93 140 0
47 94 141 0
48 95 142 0
49 96 143 0
50 97 144 0
51 98 145 0
52 99 146 0
53 100 147 0
54 101 148 0
55 102 149 0
56 103 150 0
57 104 151 0
58 105 152 0
59 106 153 0
60 107 154 0
61 108 155 0
62 109 156 0
63 110 157 0
64 111 158 0
65 112 159 0
66 113 160 0
1 49 97 0
2 50 98 0
3 51 99 0
4 52 100 0
5 53 101 0
6 54 102 0
7 55 103 0
8 56 104 0
9 57 105 0
10 58 106 0
11 59 107 0
12 60 108 0
13 61 109 0
14 62 110 0
15 63 111 0
16 64 112 0
17 65 113 0
18 66 114 0
19 67 115 0
20 68 116 0
21 69 117 0
22 70 118 0
23 71 119 0
24 72 120 0
25 73 121 0
26 74 122 0
27 75 123 0
28 76 124 0
29 77 125 0
30 78 126 0
31 79 127 0
32 80 128 0
33 81 129 0
34 82 130 0
35 83 131 0
36 84 132 0
37 85 133 0
38 86 134 0
39 87 135 0
40 88 136 0
41 89 137 0
42 90 138 0
43 91 139 0
44 92 140 0
45 93 141 0
46 94 142 0
47 95 143 0
48 96 144 0
49 97 145 0
50 98 146 0
51 99 147 0
52 100 148 0
53 101 149 0
54 102 150 0
55 103 151 0
56 104 152 0
57 105 153 0
58 106 154 0
59 107 155 0
60 108 156 0
61 109 157 0
62 110 158 0
63 111 159 0
64 112 160 0
1 50 99 0
2 51 100 0
3 52 101 0
4 53 102 0
5 54 103 0
6 55 104 0
7 56 105 0
8 57 106 0
9 58 107 0
10 59 108 0
11 60 109 0
12 61 110 0
13 62 111 0
14 63 112 0
15 64 113 0
16 65 114 0
17 66 115 0
18 67 116 0
19 68 117 0
20 69 118 0
21 70 119 0
22 71 120 0
23 72 121 0
24 73 122 0
25 74 123 0
26 75 124 0
27 76 125 0
28 77 126 0
29 78 127 0
30 79 128 0
31 80 129 0
32 81 130 0
33 82 131 0
34 83 132 0
35 84 133 0
36 85 134 0
37 86 135 0
38 87 136 0
39 88 137 0
40 89 138 0
41 90 139 0
42 91 140 0
43 92 141 0
44 93 142 0
45 94 143 0
46 95 144 0
47 96 145 0
48 97 146 0
49 98 147 0
50 99 148 0
51 100 149 0
52 101 150 0
53 102 151 0
54 103 152 0
55 104 153 0
56 105 154 0
57 106 155 0
58 107 156 0
59 108 157 0
60 109 158 0
61 110 159 0
62 111 160 0
1 51 101 0
2 52 102 0
3 53 103 0
4 54 104 0
5 55 105 0
6 56 106 0
7 57 107 0
8 58 108 0
9 59 109 0
10 60 110 0
11 61 111 0
12 62 112 0
13 63 113 0
14 64 114 0
15 65 115 0
16 66 116 0
17 67 117 0
18 68 118 0
19 69 119 0
20 70 120 0
21 71 121 0
22 72 122 0
23 73 123 0
24 74 124 0
25 75 125 0
26 76 126 0
27 77 127 0
28 78 128 0
29 79 129 0
30 80 130 0
31 81 131 0
32 82 132 0
33 83 133 0
34 84 134 0
35 85 135 0
36 86 136 0
37 87 137 0
38 88 138 0
39 89 139 0
40 90 140 0
41 91 141 0
42 92 142 0
43 93 143 0
44 94 144 0
45 95 145 0
46 96 146 0
47 97 147 0
48 98 148 0
49 99 149 0
50 100 150 0
51 101 151 0
52 102 152 0
53 103 153 0
54 104 154 0
55 105 155 0
56 106 156 0
57 107 157 0
58 108 158 0
59 109 159 0
60 110 160 0
1 52 103 0
2 53 104 0
3 54 105 0
4 55 106 0
5 56 107 0
6 57 108 0
7 58 109 0
8 59 110 0
9 60 111 0
10 61 112 0
11 62 113 0
12 63 114 0
13 64 115 0
14 65 116 0
15 66 117 0
16 67 118 0
17 68 119 0
18 69 120 0
19 70 121 0
20 71 122 0
21 72 123 0
22 73 124 0
23 74 125 0
24 75 126 0
25 76 127 0
26 77 128 0
27 78 129 0
28 79 130 0
29 80 131 0
30 81 132 0
31 82 133 0
32 83 134 0
33 84 135 0
34 85 136 0
35 86 137 0
36 87 138 0
37 88 139 0
38 89 140 0
39 90 141 0
40 91 142 0
41 92 143 0
42 93 144 0
43 94 145 0
44 95 146 0
45 96 147 0
46 97 148 0
47 98 149 0
48 99 150 0
49 100 151 0
50 101 152 0
51 102 153 0
52 103 154 0
53 104 155 0
54 105 156 0
55 106 157 0
56 107 158 0
57 108 159 0
58 109 160 0
1 53 105 0
2 54 106 0
3 55 107 0
4 56 108 0
5 57 109 0
6 58 110 0
7 59 111 0
8 60 112 0
9 61 113 0
10 62 114 0
11 63 115 0
12 64 116 0
13 65 117 0
14 66 118 0
15 67 119 0
16 68 120 0
17 69 121 0
18 70 122 0
19 71 123 0
20 72 124 0
21 73 125 0
22 74 126 0
23 75 127 0
24 76 128 0
25 77 129 0
26 78 130 0
27 79 131 0
28 80 132 0
29 81 133 0
30 82 134 0
31 83 135 0
32 84 136 0
33 85 137 0
34 86 138 0
35 87 139 0
36 88 140 0
37 89 141 0
38 90 142 0
39 91 143 0
40 92 144 0
41 93 145 0
42 94 146 0
43 95 147 0
44 96 148 0
45 97 149 0
46 98 150 0
47 99 151 0
48 100 152 0
49 101 153 0
50 102 154 0
51 103 155 0
52 104 156 0
53 105 157 0
54 106 158 0
55 107 159 0
56 108 160 0
1 54 107 0
2 55 108 0
3 56 109 0
4 57 110 0
5 58 111 0
6 59 112 0
7 60 113 0
8 61 114 0
9 62 115 0
10 63 116 0
11 64 117 0
12 65 118 0
13 66 119 0
14 67 120 0
15 68 121 0
16 69 122 0
17 70 123 0
18 71 124 0
19 72 125 0
20 73 126 0
21 74 127 0
22 75 128 0
23 76 129 0
24 77 130 0
25 78 131 0
26 79 132 0
27 80 133 0
28 81 134 0
29 82 135 0
30 83 136 0
31 84 137 0
32 85 138 0
33 86 139 0
34 87 140 0
35 88 141 0
36 89 142 0
37 90 143 0
38 91 144 0
39 92 145 0
40 93 146 0
41 94 147 0
42 95 148 0
43 96 149 0
44 97 150 0
45 98 151 0
46 99 152 0
47 100 153 0
48 101 154 0
49 102 155 0
50 103 156 0
51 104 157 0
52 105 158 0
53 106 159 0
54 107 160 0
1 55 109 0
2 56 110 0
3 57 111 0
4 58 112 0
5 59 113 0
6 60 114 0
7 61 115 0
8 62 116 0
9 63 117 0
10 64 118 0
11 65 119 0
12 66 120 0
13 67 121 0
14 68 122 0
15 69 123 0
16 70 124 0
17 71 125 0
18 72 126 0
19 73 127 0
20 74 128 0
21 75 129 0
22 76 130 0
23 77 131 0
24 78 132 0
25 79 133 0
26 80 134 0
27 81 135 0
28 82 136 0
29 83 137 0
30 84 138 0
31 85 139 0
32 86 140 0
33 87 141 0
34 88 142 0
35 89 143 0
36 90 144 0
37 91 145 0
38 92 146 0
39 93 147 0
40 94 148 0
41 95 149 0
42 96 150 0
43 97 151 0
44 98 152 0
45 99 153 0
46 100 154 0
47 101 155 0
48 102 156 0
49 103 157 0
50 104 158 0
51 105 159 0
52 106 160 0
1 56 111 0
2 57 112 0
3 58 113 0
4 59 114 0
5 60 115 0
6 61 116 0
7 62 117 0
8 63 118 0
9 64 119 0
10 65 120 0
11 66 121 0
12 67 122 0
13 68 123 0
14 69 124 0
15 70 125 0
16 71 126 0
17 72 127 0
18 73 128 0
19 74 129 0
20 75 130 0
21 76 131 0
22 77 132 0
23 78 133 0
24 79 134 0
25 80 135 0
26 81 136 0
27 82 137 0
28 83 138 0
29 84 139 0
30 85 140 0
31 86 141 0
32 87 142 0
33 88 143 0
34 89 144 0
35 90 145 0
36 91 146 0
37 92 147 0
38 93 148 0
39 94 149 0
40 95 150 0
41 96 151 0
42 97 152 0
43 98 153 0
44 99 154 0
45 100 155 0
46 101 156 0
47 102 157 0
48 103 158 0
49 104 159 0
50 105 160 0
1 57 113 0
2 58 114 0
3 59 115 0
4 60 116 0
5 61 117 0
6 62 118 0
7 63 119 0
8 64 120 0
9 65 121 0
10 66 122 0
11 67 123 0
12 68 124 0
13 69 125 0
14 70 126 0
15 71 127 0
16 72 128 0
17 73 129 0
18 74 130 0
19 75 131 0
20 76 132 0
21 77 133 0
22 78 134 0
23 79 135 0
24 80 136 0
25 81 137 0
26 82 138 0
27 83 139 0
28 84 140 0
29 85 141 0
30 86 142 0
31 87 143 0
32 88 144 0
33 89 145 0
34 90 146 0
35 91 147 0
36 92 148 0
37 93 149 0
38 94 150 0
39 95 151 0
40 96 152 0
41 97 153 0
42 98 154 0
43 99 155 0
44 100 156 0
45 101 157 0
46 102 158 0
47 103 159 0
48 104 160 0
1 58 115 0
2 59 116 0
3 60 117 0
4 61 118 0
5 62 119 0
6 63 120 0
7 64 121 0
8 65 122 0
9 66 123 0
10 67 124 0
11 68 125 0
12 69 126 0
13 70 127 0
14 71 128 0
15 72 129 0
16 73 130 0
17 74 131 0
18 75 132 0
19 76 133 0
20 77 134 0
21 78 135 0
22 79 136 0
23 80 137 0
24 81 138 0
25 82 139 0
26 83 140 0
27 84 141 0
28 85 142 0
29 86 143 0
30 87 144 0
31 88 145 0
32 89 146 0
33 90 147 0
34 91 148 0
35 92 149 0
36 93 150 0
37 94 151 0
38 95 152 0
39 96 153 0
40 97 154 0
41 98 155 0
42 99 156 0
43 100 157 0
44 101 158 0
45 102 159 0
46 103 160 0
1 59 117 0
2 60 118 0
3 61 119 0
4 62 120 0
5 63 121 0
6 64 122 0
7 65 123 0
8 66 124 0
9 67 125 0
10 68 126 0
11 69 127 0
12 70 128 0
13 71 129 0
14 72 130 0
15 73 131 0
16 74 132 0
17 75 133 0
18 76 134 0
19 77 135 0
20 78 136 0
21 79 137 0
22 80 138 0
23 81 139 0
24 82 140 0
25 83 141 0
26 84 142 0
27 85 143 0
28 86 144 0
29 87 145 0
30 88 146 0
31 89 147 0
32 90 148 0
33 91 149 0
34 92 150 0
35 93 151 0
36 94 152 0
37 95 153 0
38 96 154 0
39 97 155 0
40 98 156 0
41 99 157 0
42 100 158 0
43 101 159 0
44 102 160 0
1 60 119 0
2 61 120 0
3 62 121 0
4 63 122 0
5 64 123 0
6 65 124 0
7 66 125 0
8 67 126 0
9 68 127 0
10 69 128 0
11 70 129 0
12 71 130 0
13 72 131 0
14 73 132 0
15 74 133 0
16 75 134 0
17 76 135 0
18 77 136 0
19 78 137 0
20 79 138 0
21 80 139 0
22 81 140 0
23 82 141 0
24 83 142 0
25 84 143 0
26 85 144 0
27 86 145 0
28 87 146 0
29 88 147 0
30 89 148 0
31 90 149 0
32 91 150 0
33 92 151 0
34 93 152 0
35 94 153 0
36 95 154 0
37 96 155 0
38 97 156 0
39 98 157 0
40 99 158 0
41 100 159 0
42 101 160 0
1 61 121 0
2 62 122 0
3 63 123 0
4 64 124 0
5 65 125 0
6 66 126 0
7 67 127 0
8 68 128 0
9 69 129 0
10 70 130 0
11 71 131 0
12 72 132 0
13 73 133 0
14 74 134 0
15 75 135 0
16 76 136 0
17 77 137 0
18 78 138 0
19 79 139 0
20 80 140 0
21 81 141 0
22 82 142 0
23 83 143 0
24 84 144 0
25 85 145 0
26 86 146 0
27 87 147 0
28 88 148 0
29 89 149 0
30 90 150 0
31 91 151 0
32 92 152 0
33 93 153 0
34 94 154 0
35 95 155 0
36 96 156 0
37 97 157 0
38 98 158 0
39 99 159 0
40 100 160 0
1 62 123 0
2 63 124 0
3 64 125 0
4 65 126 0
5 66 127 0
6 67 128 0
7 68 129 0
8 69 130 0
9 70 131 0
10 71 132 0
11 72 133 0
12 73 134 0
13 74 135 0
14 75 136 0
15 76 137 0
16 77 138 0
17 78 139 0
18 79 140 0
19 80 141 0
20 81 142 0
21 82 143 0
22 83 144 0
23 84 145 0
24 85 146 0
25 86 147 0
26 87 148 0
27 88 149 0
28 89 150 0
29 90 151 0
30 91 152 0
31 92 153 0
32 93 154 0
33 94 155 0
34 95 156 0
35 96 157 0
36 97 158 0
37 98 159 0
38 99 160 0
1 63 125 0
2 64 126 0
3 65 127 0
4 66 128 0
5 67 129 0
6 68 130 0
7 69 131 0
8 70 132 0
9 71 133 0
10 72 134 0
11 73 135 0
12 74 136 0
13 75 137 0
14 76 138 0
15 77 139 0
16 78 140 0
17 79 141 0
18 80 142 0
19 81 143 0
20 82 144 0
21 83 145 0
22 84 146 0
23 85 147 0
24 86 148 0
25 87 149 0
26 88 150 0
27 89 151 0
28 90 152 0
29 91 153 0
30 92 154 0
31 93 155 0
32 94 156 0
33 95 157 0
34 96 158 0
35 97 159 0
36 98 160 0
1 64 127 0
2 65 128 0
3 66 129 0
4 67 130 0
5 68 131 0
6 69 132 0
7 70 133 0
8 71 134 0
9 72 135 0
10 73 136 0
11 74 137 0
12 75 138 0
13 76 139 0
14 77 140 0
15 78 141 0
16 79 142 0
17 80 143 0
18 81 144 0
19 82 145 0
20 83 146 0
21 84 147 0
22 85 148 0
23 86 149 0
24 87 150 0
25 88 151 0
26 89 152 0
27 90 153 0
28 91 154 0
29 92 155 0
30 93 156 0
31 94 157 0
32 95 158 0
33 96 159 0
34 97 160 0
1 65 129 0
2 66 130 0
3 67 131 0
4 68 132 0
5 69 133 0
6 70 134 0
7 71 135 0
8 72 136 0
9 73 137 0
10 74 138 0
11 75 139 0
12 76 140 0
13 77 141 0
14 78 142 0
15 79 143 0
16 80 144 0
17 81 145 0
18 82 146 0
19 83 147 0
20 84 148 0
21 85 149 0
22 86 150 0
23 87 151 0
24 88 152 0
25 89 153 0
26 90 154 0
27 91 155 0
28 92 156 0
29 93 157 0
30 94 158 0
31 95 159 0
32 96 160 0
1 66 131 0
2 67 132 0
3 68 133 0
4 69 134 0
5 70 135 0
6 71 136 0
7 72 137 0
8 73 138 0
9 74 139 0
10 75 140 0
11 76 141 0
12 77 142 0
13 78 143 0
14 79 144 0
15 80 145 0
16 81 146 0
17 82 147 0
18 83 148 0
19 84 149 0
20 85 150 0
21 86 151 0
22 87 152 0
23 88 153 0
24 89 154 0
25 90 155 0
26 91 156 0
27 92 157 0
28 93 158 0
29 94 159 0
30 95 160 0
1 67 133 0
2 68 134 0
3 69 135 0
4 70 136 0
5 71 137 0
6 72 138 0
7 73 139 0
8 74 140 0
9 75 141 0
10 76 142 0
11 77 143 0
12 78 144 0
13 79 145 0
14 80 146 0
15 81 147 0
16 82 148 0
17 83 149 0
18 84 150 0
19 85 151 0
20 86 152 0
21 87 153 0
22 88 154 0
23 89 155 0
24 90 156 0
25 91 157 0
26 92 158 0
27 93 159 0
28 94 160 0
1 68 135 0
2 69 136 0
3 70 137 0
4 71 138 0
5 72 139 0
6 73 140 0
7 74 141 0
8 75 142 0
9 76 143 0
10 77 144 0
11 78 145 0
12 79 146 0
13 80 147 0
14 81 148 0
15 82 149 0
16 83 150 0
17 84 151 0
18 85 152 0
19 86 153 0
20 87 154 0
21 88 155 0
22 89 156 0
23 90 157 0
24 91 158 0
25 92 159 0
26 93 160 0
1 69 137 0
2 70 138 0
3 71 139 0
4 72 140 0
5 73 141 0
6 74 142 0
7 75 143 0
8 76 144 0
9 77 145 0
10 78 146 0
11 79 147 0
12 80 148 0
13 81 149 0
14 82 150 0
15 83 151 0
16 84 152 0
17 85 153 0
18 86 154 0
19 87 155 0
20 88 156 0
21 89 157 0
22 90 158 0
23 91 159 0
24 92 160 0
1 70 139 0
2 71 140 0
3 72 141 0
4 73 142 0
5 74 143 0
6 75 144 0
7 76 145 0
8 77 146 0
9 78 147 0
10 79 148 0
11 80 149 0
12 81 150 0
13 82 151 0
14 83 152 0
15 84 153 0
16 85 154 0
17 86 155 0
18 87 156 0
19 88 157 0
20 89 158 0
21 90 159 0
22 91 160 0
1 71 141 0
2 72 142 0
3 73 143 0
4 74 144 0
5 75 145 0
6 76 146 0
7 77 147 0
8 78 148 0
9 79 149 0
10 80 150 0
11 81 151 0
12 82 152 0
13 83 153 0
14 84 154 0
15 85 155 0
16 86 156 0
17 87 157 0
18 88 158 0
19 89 159 0
20 90 160 0
1 72 143 0
2 73 144 0
3 74 145 0
4 75 146 0
5 76 147 0
6 77 148 0
7 78 149 0
8 79 150 0
9 80 151 0
10 81 152 0
11 82 153 0
12 83 154 0
13 84 155 0
14 85 156 0
15 86 157 0
16 87 158 0
17 88 159 0
18 89 160 0
1 73 145 0
2 74 146 0
3 75 147 0
4 76 148 0
5 77 149 0
6 78 150 0
7 79 151 0
8 80 152 0
9 81 153 0
10 82 154 0
11 83 155 0
12 84 156 0
13 85 157 0
14 86 158 0
15 87 159 0
16 88 160 0
1 74 147 0
2 75 148 0
3 76 149 0
4 77 150 0
5 78 151 0
6 79 152 0
7 80 153 0
8 81 154 0
9 82 155 0
10 83 156 0
11 84 157 0
12 85 158 0
13 86 159 0
14 87 160 0
1 75 149 0
2 76 150 0
3 77 151 0
4 78 152 0
5 79 153 0
6 80 154 0
7 81 155 0
8 82 156 0
9 83 157 0
10 84 158 0
11 85 159 0
12 86 160 0
1 76 151 0
2 77 152 0
3 78 153 0
4 79 154 0
5 80 155 0
6 81 156 0
7 82 157 0
8 83 158 0
9 84 159 0
10 85 160 0
1 77 153 0
2 78 154 0
3 79 155 0
4 80 156 0
5 81 157 0
6 82 158 0
7 83 159 0
8 84 160 0
1 78 155 0
2 79 156 0
3 80 157 0
4 81 158 0
5 82 159 0
6 83 160 0
1 79 157 0
2 80 158 0
3 81 159 0
4 82 160 0
1 80 159 0
2 81 160 0
-1 -2 -3 -4 -5 -6 -7 -8 -9 -10 -11 -12 -13 0
-2 -3 -4 -5 -6 -7 -8 -9 -10 -11 -12 -13 -14 0
-3 -4 -5 -6 -7 -8 -9 -10 -11 -12 -13 -14 -15 0
-4 -5 -6 -7 -8 -9 -10 -11 -12 -13 -14 -15 -16 0
-5 -6 -7 -8 -9 -10 -11 -12 -13 -14 -15 -16 -17 0
-6 -7 -8 -9 -10 -11 -12 -13 -14 -15 -16 -17 -18 0
-7 -8 -9 -10 -11 -12 -13 -14 -15 -16 -17 -18 -19 0
-8 -9 -10 -11 -12 -13 -14 -15 -16 -17 -18 -19 -20 0
-9 -10 -11 -12 -13 -14 -15 -16 -17 -18 -19 -20 -21 0
-10 -11 -12 -13 -14 -15 -16 -17 -18 -19 -20 -21 -22 0
-11 -12 -13 -14 -15 -16 -17 -18 -19 -20 -21 -22 -23 0
-12 -13 -14 -15 -16 -17 -18 -19 -20 -21 -22 -23 -24 0
-13 -14 -15 -16 -17 -18 -19 -20 -21 -22 -23 -24 -25 0
-14 -15 -16 -17 -18 -19 -20 -21 -22 -23 -24 -25 -26 0
-15 -16 -17 -18 -19 -20 -21 -22 -23 -24 -25 -26 -27 0
-16 -17 -18 -19 -20 -21 -22 -23 -24 -25 -26 -27 -28 0
-17 -18 -19 -20 -21 -22 -23 -24 -25 -26 -27 -28 -29 0
-18 -19 -20 -21 -22 -23 -24 -25 -26 -27 -28 -29 -30 0
-19 -20 -21 -22 -23 -24 -25 -26 -27 -28 -29 -30 -31 0
-20 -21 -22 -23 -24 -25 -26 -27 -28 -29 -30 -31 -32 0
-21 -22 -23 -24 -25 -26 -27 -28 -29 -30 -31 -32 -33 0
-22 -23 -24 -25 -26 -27 -28 -29 -30 -31 -32 -33 -34 0
-23 -24 -25 -26 -27 -28 -29 -30 -31 -32 -33 -34 -35 0
-24 -25 -26 -27 -28 -29 -30 -31 -32 -33 -34 -35 -36 0
-25 -26 -27 -28 -29 -30 -31 -32 -33 -34 -35 -36 -37 0
-26 -27 -28 -29 -30 -31 -32 -33 -34 -35 -36 -37 -38 0
-27 -28 -29 -30 -31 -32 -33 -34 -35 -36 -37 -38 -39 0
-28 -29 -30 -31 -32 -33 -34 -35 -36 -37 -38 -39 -40 0
-29 -30 -31 -32 -33 -34 -35 -36 -37 -38 -39 -40 -41 0
-30 -31 -32 -33 -34 -35 -36 -37 -38 -39 -40 -41 -42 0
-31 -32 -33 -34 -35 -36 -37 -38 -39 -40 -41 -42 -43 0
-32 -33 -34 -35 -36 -37 -38 -39 -40 -41 -42 -43 -44 0
-33 -34 -35 -36 -37 -38 -39 -40 -41 -42 -43 -44 -45 0
-34 -35 -36 -37 -38 -39 -40 -41 -42 -43 -44 -45 -46 0
-35 -36 -37 -38 -39 -40 -41 -42 -43 -44 -45 -46 -47 0
-36 -37 -38 -39 -40 -41 -42 -43 -44 -45 -46 -47 -48 0
-37 -38 -39 -40 -41 -42 -43 -44 -45 -46 -47 -48 -49 0
-38 -39 -40 -41 -42 -43 -44 -45 -46 -47 -48 -49 -50 0
-39 -40 -41 -42 -43 -44 -45 -46 -47 -48 -49 -50 -51 0
-40 -41 -42 -43 -44 -45 -46 -47 -48 -49 -50 -51 -52 0
-41 -42 -43 -44 -45 -46 -47 -48 -49 -50 -51 -52 -53 0
-42 -43 -44 -45 -46 -47 -48 -49 -50 -51 -52 -53 -54 0
-43 -44 -45 -46 -47 -48 -49 -50 -51 -52 -53 -54 -55 0
-44 -45 -46 -47 -48 -49 -50 -51 -52 -53 -54 -55 -56 0
-45 -46 -47 -48 -49 -50 -51 -52 -53 -54 -55 -56 -57 0
-46 -47 -48 -49 -50 -51 -52 -53 -54 -55 -56 -57 -58 0
-47 -48 -49 -50 -51 -52 -53 -54 -55 -56 -57 -58 -59 0
-48 -49 -50 -51 -52 -53 -54 -55 -56 -57 -58 -59 -60 0
-49 -50 -51 -52 -53 -54 -55 -56 -57 -58 -59 -60 -61 0
-50 -51 -52 -53 -54 -55 -56 -57 -58 -59 -60 -61 -62 0
-51 -52 -53 -54 -55 -56 -57 -58 -59 -60 -61 -62 -63 0
-52 -53 -54 -55 -56 -57 -58 -59 -60 -61 -62 -63 -64 0
-53 -54 -55 -56 -57 -58 -59 -60 -61 -62 -63 -64 -65 0
-54 -55 -56 -57 -58 -59 -60 -61 -62 -63 -64 -65 -66 0
-55 -56 -57 -58 -59 -60 -61 -62 -63 -64 -65 -66 -67 0
-56 -57 -58 -59 -60 -61 -62 -63 -64 -65 -66 -67 -68 0
-57 -58 -59 -60 -61 -62 -63 -64 -65 -66 -67 -68 -69 0
-58 -59 -60 -61 -62 -63 -64 -65 -66 -67 -68 -69 -70 0
-59 -60 -61 -62 -63 -64 -65 -66 -67 -68 -69 -70 -71 0
-60 -61 -62 -63 -64 -65 -66 -67 -68 -69 -70 -71 -72 0
-61 -62 -63 -64 -65 -66 -67 -68 -69 -70 -71 -72 -73 0
-62 -63 -64 -65 -66 -67 -68 -69 -70 -71 -72 -73 -74 0
-63 -64 -65 -66 -67 -68 -69 -70 -71 -72 -73 -74 -75 0
-64 -65 -66 -67 -68 -69 -70 -71 -72 -73 -74 -75 -76 0
-65 -66 -67 -68 -69 -70 -71 -72 -73 -74 -75 -76 -77 0
-66 -67 -68 -69 -70 -71 -72 -73 -74 -75 -76 -77 -78 0
-67 -68 -69 -70 -71 -72 -73 -74 -75 -76 -77 -78 -79 0
-68 -69 -70 -71 -72 -73 -74 -75 -76 -77 -78 -79 -80 0
-69 -70 -71 -72 -73 -74 -75 -76 -77 -78 -79 -80 -81 0
-70 -71 -72 -73 -74 -75 -76 -77 -78 -79 -80 -81 -82 0
-71 -72 -73 -74 -75 -76 -77 -78 -79 -80 -81 -82 -83 0
-72 -73 -74 -75 -76 -77 -78 -79 -80 -81 -82 -83 -84 0
-73 -74 -75 -76 -77 -78 -79 -80 -81 -82 -83 -84 -85 0
-74 -75 -76 -77 -78 -79 -80 -81 -82 -83 -84 -85 -86 0
-75 -76 -77 -78 -79 -80 -81 -82 -83 -84 -85 -86 -87 0
-76 -77 -78 -79 -80 -81 -82 -83 -84 -85 -86 -87 -88 0
-77 -78 -79 -80 -81 -82 -83 -84 -85 -86 -87 -88 -89 0
-78 -79 -80 -81 -82 -83 -84 -85 -86 -87 -88 -89 -90 0
-79 -80 -81 -82 -83 -84 -85 -86 -87 -88 -89 -90 -91 0
-80 -81 -82 -83 -84 -85 -86 -87 -88 -89 -90 -91 -92 0
-81 -82 -83 -84 -85 -86 -87 -88 -89 -90 -91 -92 -93 0
-82 -83 -84 -85 -86 -87 -88 -89 -90 -91 -92 -93 -94 0
-83 -84 -85 -86 -87 -88 -89 -90 -91 -92 -93 -94 -95 0
-84 -85 -86 -87 -88 -89 -90 -91 -92 -93 -94 -95 -96 0
-85 -86 -87 -88 -89 -90 -91 -92 -93 -94 -95 -96 -97 0
-86 -87 -88 -89 -90 -91 -92 -93 -94 -95 -96 -97 -98 0
-87 -88 -89 -90 -91 -92 -93 -94 -95 -96 -97 -98 -99 0
-88 -89 -90 -91 -92 -93 -94 -95 -96 -97 -98 -99 -100 0
-89 -90 -91 -92 -93 -94 -95 -96 -97 -98 -99 -100 -101 0
-90 -91 -92 -93 -94 -95 -96 -97 -98 -99 -100 -101 -102 0
-91 -92 -93 -94 -95 -96 -97 -98 -99 -100 -101 -102 -103 0
-92 -93 -94 -95 -96 -97 -98 -99 -100 -101 -102 -103 -104 0
-93 -94 -95 -96 -97 -98 -99 -100 -101 -102 -103 -104 -105 0
-94 -95 -96 -97 -98 -99 -100 -101 -102 -103 -104 -105 -106 0
-95 -96 -97 -98 -99 -100 -101 -102 -103 -104 -105 -106 -107 0
-96 -97 -98 -99 -100 -101 -102 -103 -104 -105 -106 -107 -108 0
-97 -98 -99 -100 -101 -102 -103 -104 -105 -106 -107 -108 -109 0
-98 -99 -100 -101 -102 -103 -104 -105 -106 -107 -108 -109 -110 0
-99 -100 -101 -102 -103 -104 -105 -106 -107 -108 -109 -110 -111 0
-100 -101 -102 -103 -104 -105 -106 -107 -108 -109 -110 -111 -112 0
-101 -102 -103 -104 -105 -106 -107 -108 -109 -110 -111 -112 -113 0
-102 -103 -104 -105 -106 -107 -108 -109 -110 -111 -112 -113 -114 0
-103 -104 -105 -106 -107 -108 -109 -110 -111 -112 -113 -114 -115 0
-104 -105 -106 -107 -108 -109 -110 -111 -112 -113 -114 -115 -116 0
-105 -106 -107 -108 -109 -110 -111 -112 -113 -114 -115 -116 -117 0
-106 -107 -108 -109 -110 -111 -112 -113 -114 -115 -116 -117 -118 0
-107 -108 -109 -110 -111 -112 -113 -114 -115 -116 -117 -118 -119 0
-108 -109 -110 -111 -112 -113 -114 -115 -116 -117 -118 -119 -120 0
-109 -110 -111 -112 -113 -114 -115 -116 -117 -118 -119 -120 -121 0
-110 -111 -112 -113 -114 -115 -116 -117 -118 -119 -120 -121 -122 0
-111 -112 -113 -114 -115 -116 -117 -118 -119 -120 -121 -122 -123 0
-112 -113 -114 -115 -116 -117 -118 -119 -120 -121 -122 -123 -124 0
-113 -114 -115 -116 -117 -118 -119 -120 -121 -122 -123 -124 -125 0
-114 -115 -116 -117 -118 -119 -120 -121 -122 -123 -124 -125 -126 0
-115 -116 -117 -118 -119 -120 -121 -122 -123 -124 -125 -126 -127 0
-116 -117 -118 -119 -120 -121 -122 -123 -124 -125 -126 -127 -128 0
-117 -118 -119 -120 -121 -122 -123 -124 -125 -126 -127 -128 -129 0
-118 -119 -120 -121 -122 -123 -124 -125 -126 -127 -128 -129 -130 0
-119 -120 -121 -122 -123 -124 -125 -126 -127 -128 -129 -130 -131 0
-120 -121 -122 -123 -124 -125 -126 -127 -128 -129 -130 -131 -132 0
-121 -122 -123 -124 -125 -126 -127 -128 -129 -130 -131 -132 -133 0
-122 -123 -124 -125 -126 -127 -128 -129 -130 -131 -132 -133 -134 0
-123 -124 -125 -126 -127 -128 -129 -130 -131 -132 -133 -134 -135 0
-124 -125 -126 -127 -128 -129 -130 -131 -132 -133 -134 -135 -136 0
-125 -126 -127 -128 -129 -130 -131 -132 -133 -134 -135 -136 -137 0
-126 -127 -128 -129 -130 -131 -132 -133 -134 -135 -136 -137 -138 0
-127 -128 -129 -130 -131 -132 -133 -134 -135 -136 -137 -138 -139 0
-128 -129 -130 -131 -132 -133 -134 -135 -136 -137 -138 -139 -140 0
-129 -130 -131 -132 -133 -134 -135 -136 -137 -138 -139 -140 -141 0
-130 -131 -132 -133 -134 -135 -136 -137 -138 -139 -140 -141 -142 0
-131 -132 -133 -134 -135 -136 -137 -138 -139 -140 -141 -142 -143 0
-132 -133 -134 -135 -136 -137 -138 -139 -140 -141 -142 -143 -144 0
-133 -134 -135 -136 -137 -138 -139 -140 -141 -142 -143 -144 -145 0
-134 -135 -136 -137 -138 -139 -140 -141 -142 -143 -144 -145 -146 0
-135 -136 -137 -138 -139 -140 -141 -142 -143 -144 -145 -146 -147 0
-136 -137 -138 -139 -140 -141 -142 -143 -144 -145 -146 -147 -148 0
-137 -138 -139 -140 -141 -142 -143 -144 -145 -146 -147 -148 -149 0
-138 -139 -140 -141 -142 -143 -144 -145 -146 -147 -148 -149 -150 0
-139 -140 -141 -142 -143 -144 -145 -146 -147 -148 -149 -150 -151 0
-140 -141 -142 -143 -144 -145 -146 -147 -148 -149 -150 -151 -152 0
-141 -142 -143 -144 -145 -146 -147 -148 -149 -150 -151 -152 -153 0
-142 -143 -144 -145 -146 -147 -148 -149 -150 -151 -152 -153 -154 0
-143 -144 -145 -146 -147 -148 -149 -150 -151 -152 -153 -154 -155 0
-144 -145 -146 -147 -148 -149 -150 -151 -152 -153 -154 -155 -156 0
-145 -146 -147 -148 -149 -150 -151 -152 -153 -154 -155 -156 -157 0
-146 -147 -148 -149 -150 -151 -152 -153 -154 -155 -156 -157 -158 0
-147 -148 -149 -150 -151 -152 -153 -154 -155 -156 -157 -158 -159 0
-148 -149 -150 -151 -152 -153 -154 -155 -156 -157 -158 -159 -160 0
-1 -3 -5 -7 -9 -11 -13 -15 -17 -19 -21 -23 -25 0
-2 -4 -6 -8 -10 -12 -14 -16 -18 -20 -22 -24 -26 0
-3 -5 -7 -9 -11 -13 -15 -17 -19 -21 -23 -25 -27 0
-4 -6 -8 -10 -12 -14 -16 -18 -20 -22 -24 -26 -28 0
-5 -7 -9 -11 -13 -15 -17 -19 -21 -23 -25 -27 -29 0
-6 -8 -10 -12 -14 -16 -18 -20 -22 -24 -26 -28 -30 0
-7 -9 -11 -13 -15 -17 -19 -21 -23 -25 -27 -29 -31 0
-8 -10 -12 -14 -16 -18 -20 -22 -24 -26 -28 -30 -32 0
-9 -11 -13 -15 -17 -19 -21 -23 -25 -27 -29 -31 -33 0
-10 -12 -14 -16 -18 -20 -22 -24 -26 -28 -30 -32 -34 0
-11 -13 -15 -17 -19 -21 -23 -25 -27 -29 -31 -33 -35 0
-12 -14 -16 -18 -20 -22 -24 -26 -28 -30 -32 -34 -36 0
-13 -15 -17 -19 -21 -23 -25 -27 -29 -31 -33 -35 -37 0
-14 -16 -18 -20 -22 -24 -26 -28 -30 -32 -34 -36 -38 0
-15 -17 -19 -21 -23 -25 -27 -29 -31 -33 -35 -37 -39 0
-16 -18 -20 -22 -24 -26 -28 -30 -32 -34 -36 -38 -40 0
-17 -19 -21 -23 -25 -27 -29 -31 -33 -35 -37 -39 -41 0
-18 -20 -22 -24 -26 -28 -30 -32 -34 -36 -38 -40 -42 0
-19 -21 -23 -25 -27 -29 -31 -33 -35 -37 -39 -41 -43 0
-20 -22 -24 -26 -28 -30 -32 -34 -36 -38 -40 -42 -44 0
-21 -23 -25 -27 -29 -31 -33 -35 -37 -39 -41 -43 -45 0
-22 -24 -26 -28 -30 -32 -34 -36 -38 -40 -42 -44 -46 0
-23 -25 -27 -29 -31 -33 -35 -37 -39 -41 -43 -45 -47 0
-24 -26 -28 -30 -32 -34 -36 -38 -40 -42 -44 -46 -48 0
-25 -27 -29 -31 -33 -35 -37 -39 -41 -43 -45 -47 -49 0
-26 -28 -30 -32 -34 -36 -38 -40 -42 -44 -46 -48 -50 0
-27 -29 -31 -33 -35 -37 -39 -41 -43 -45 -47 -49 -51 0
-28 -30 -32 -34 -36 -38 -40 -42 -44 -46 -48 -50 -52 0
-29 -31 -33 -35 -37 -39 -41 -43 -45 -47 -49 -51 -53 0
-30 -32 -34 -36 -38 -40 -42 -44 -46 -48 -50 -52 -54 0
-31 -33 -35 -37 -39 -41 -43 -45 -47 -49 -51 -53 -55 0
-32 -34 -36 -38 -40 -42 -44 -46 -48 -50 -52 -54 -56 0
-33 -35 -37 -39 -41 -43 -45 -47 -49 -51 -53 -55 -57 0
-34 -36 -38 -40 -42 -44 -46 -48 -50 -52 -54 -56 -58 0
-35 -37 -39 -41 -43 -45 -47 -49 -51 -53 -55 -57 -59 0
-36 -38 -40 -42 -44 -46 -48 -50 -52 -54 -56 -58 -60 0
-37 -39 -41 -43 -45 -47 -49 -51 -53 -55 -57 -59 -61 0
-38 -40 -42 -44 -46 -48 -50 -52 -54 -56 -58 -60 -62 0
-39 -41 -43 -45 -47 -49 -51 -53 -55 -57 -59 -61 -63 0
-40 -42 -44 -46 -48 -50 -52 -54 -56 -58 -60 -62 -64 0
-41 -43 -45 -47 -49 -51 -53 -55 -57 -59 -61 -63 -65 0
-42 -44 -46 -48 -50 -52 -54 -56 -58 -60 -62 -64 -66 0
-43 -45 -47 -49 -51 -53 -55 -57 -59 -61 -63 -65 -67 0
-44 -46 -48 -50 -52 -54 -56 -58 -60 -62 -64 -66 -68 0
-45 -47 -49 -51 -53 -55 -57 -59 -61 -63 -65 -67 -69 0
-46 -48 -50 -52 -54 -56 -58 -60 -62 -64 -66 -68 -70 0
-47 -49 -51 -53 -55 -57 -59 -61 -63 -65 -67 -69 -71 0
-48 -50 -52 -54 -56 -58 -60 -62 -64 -66 -68 -70 -72 0
-49 -51 -53 -55 -57 -59 -61 -63 -65 -67 -69 -71 -73 0
-50 -52 -54 -56 -58 -60 -62 -64 -66 -68 -70 -72 -74 0
-51 -53 -55 -57 -59 -61 -63 -65 -67 -69 -71 -73 -75 0
-52 -54 -56 -58 -60 -62 -64 -66 -68 -70 -72 -74 -76 0
-53 -55 -57 -59 -61 -63 -65 -67 -69 -71 -73 -75 -77 0
-54 -56 -58 -60 -62 -64 -66 -68 -70 -72 -74 -76 -78 0
-55 -57 -59 -61 -63 -65 -67 -69 -71 -73 -75 -77 -79 0
-56 -58 -60 -62 -64 -66 -68 -70 -72 -74 -76 -78 -80 0
-57 -59 -61 -63 -65 -67 -69 -71 -73 -75 -77 -79 -81 0
-58 -60 -62 -64 -66 -68 -70 -72 -74 -76 -78 -80 -82 0
-59 -61 -63 -65 -67 -69 -71 -73 -75 -77 -79 -81 -83 0
-60 -62 -64 -66 -68 -70 -72 -74 -76 -78 -80 -82 -84 0
-61 -63 -65 -67 -69 -71 -73 -75 -77 -79 -81 -83 -85 0
-62 -64 -66 -68 -70 -72 -74 -76 -78 -80 -82 -84 -86 0
-63 -65 -67 -69 -71 -73 -75 -77 -79 -81 -83 -85 -87 0
-64 -66 -68 -70 -72 -74 -76 -78 -80 -82 -84 -86 -88 0
-65 -67 -69 -71 -73 -75 -77 -79 -81 -83 -85 -87 -89 0
-66 -68 -70 -72 -74 -76 -78 -80 -82 -84 -86 -88 -90 0
-67 -69 -71 -73 -75 -77 -79 -81 -83 -85 -87 -89 -91 0
-68 -70 -72 -74 -76 -78 -80 -82 -84 -86 -88 -90 -92 0
-69 -71 -73 -75 -77 -79 -81 -83 -85 -87 -89 -91 -93 0
-70 -72 -74 -76 -78 -80 -82 -84 -86 -88 -90 -92 -94 0
-71 -73 -75 -77 -79 -81 -83 -85 -87 -89 -91 -93 -95 0
-72 -74 -76 -78 -80 -82 -84 -86 -88 -90 -92 -94 -96 0
-73 -75 -77 -79 -81 -83 -85 -87 -89 -91 -93 -95 -97 0
-74 -76 -78 -80 -82 -84 -86 -88 -90 -92 -94 -96 -98 0
-75 -77 -79 -81 -83 -85 -87 -89 -91 -93 -95 -97 -99 0
-76 -78 -80 -82 -84 -86 -88 -90 -92 -94 -96 -98 -100 0
-77 -79 -81 -83 -85 -87 -89 -91 -93 -95 -97 -99 -101 0
-78 -80 -82 -84 -86 -88 -90 -92 -94 -96 -98 -100 -102 0
-79 -81 -83 -85 -87 -89 -91 -93 -95 -97 -99 -101 -103 0
-80 -82 -84 -86 -88 -90 -92 -94 -96 -98 -100 -102 -104 0
-81 -83 -85 -87 -89 -91 -93 -95 -97 -99 -101 -103 -105 0
-82 -84 -86 -88 -90 -92 -94 -96 -98 -100 -102 -104 -106 0
-83 -85 -87 -89 -91 -93 -95 -97 -99 -101 -103 -105 -107 0
-84 -86 -88 -90 -92 -94 -96 -98 -100 -102 -104 -106 -108 0
-85 -87 -89 -91 -93 -95 -97 -99 -101 -103 -105 -107 -109 0
-86 -88 -90 -92 -94 -96 -98 -100 -102 -104 -106 -108 -110 0
-87 -89 -91 -93 -95 -97 -99 -101 -103 -105 -107 -109 -111 0
-88 -90 -92 -94 -96 -98 -100 -102 -104 -106 -108 -110 -112 0
-89 -91 -93 -95 -97 -99 -101 -103 -105 -107 -109 -111 -113 0
-90 -92 -94 -96 -98 -100 -102 -104 -106 -108 -110 -112 -114 0
-91 -93 -95 -97 -99 -101 -103 -105 -107 -109 -111 -113 -115 0
-92 -94 -96 -98 -100 -102 -104 -106 -108 -110 -112 -114 -116 0
-93 -95 -97 -99 -101 -103 -105 -107 -109 -111 -113 -115 -117 0
-94 -96 -98 -100 -102 -104 -106 -108 -110 -112 -114 -116 -118 0
-95 -97 -99 -101 -103 -105 -107 -109 -111 -113 -115 -117 -119 0
-96 -98 -100 -102 -104 -106 -108 -110 -112 -114 -116 -118 -120 0
-97 -99 -101 -103 -105 -107 -109 -111 -113 -115 -117 -119 -121 0
-98 -100 -102 -104 -106 -108 -110 -112 -114 -116 -118 -120 -122 0
-99 -101 -103 -105 -107 -109 -111 -113 -115 -117 -119 -121 -123 0
-100 -102 -104 -106 -108 -110 -112 -114 -116 -118 -120 -122 -124 0
-101 -103 -105 -107 -109 -111 -113 -115 -117 -119 -121 -123 -125 0
-102 -104 -106 -108 -110 -112 -114 -116 -118 -120 -122 -124 -126 0
-103 -105 -107 -109 -111 -113 -115 -117 -119 -121 -123 -125 -127 0
-104 -106 -108 -110 -112 -114 -116 -118 -120 -122 -124 -126 -128 0
-105 -107 -109 -111 -113 -115 -117 -119 -121 -123 -125 -127 -129 0
-106 -108 -110 -112 -114 -116 -118 -120 -122 -124 -126 -128 -130 0
-107 -109 -111 -113 -115 -117 -119 -121 -123 -125 -127 -129 -131 0
-108 -110 -112 -114 -116 -118 -120 -122 -124 -126 -128 -130 -132 0
-109 -111 -113 -115 -117 -119 -121 -123 -125 -127 -129 -131 -133 0
-110 -112 -114 -116 -118 -120 -122 -124 -126 -128 -130 -132 -134 0
-111 -113 -115 -117 -119 -121 -123 -125 -127 -129 -131 -133 -135 0
-112 -114 -116 -118 -120 -122 -124 -126 -128 -130 -132 -134 -136 0
-113 -115 -117 -119 -121 -123 -125 -127 -129 -131 -133 -135 -137 0
-114 -116 -118 -120 -122 -124 -126 -128 -130 -132 -134 -136 -138 0
-115 -117 -119 -121 -123 -125 -127 -129 -131 -133 -135 -137 -139 0
-116 -118 -120 -122 -124 -126 -128 -130 -132 -134 -136 -138 -140 0
-117 -119 -121 -123 -125 -127 -129 -131 -133 -135 -137 -139 -141 0
-118 -120 -122 -124 -126 -128 -130 -132 -134 -136 -138 -140 -142 0
-119 -121 -123 -125 -127 -129 -131 -133 -135 -137 -139 -141 -143 0
-120 -122 -124 -126 -128 -130 -132 -134 -136 -138 -140 -142 -144 0
-121 -123 -125 -127 -129 -131 -133 -135 -137 -139 -141 -143 -145 0
-122 -124 -126 -128 -130 -132 -134 -136 -138 -140 -142 -144 -146 0
-123 -125 -127 -129 -131 -133 -135 -137 -139 -141 -143 -145 -147 0
-124 -126 -128 -130 -132 -134 -136 -138 -140 -142 -144 -146 -148 0
-125 -127 -129 -131 -133 -135 -137 -139 -141 -143 -145 -147 -149 0
-126 -128 -130 -132 -134 -136 -138 -140 -142 -144 -146 -148 -150 0
-127 -129 -131 -133 -135 -137 -139 -141 -143 -145 -147 -149 -151 0
-128 -130 -132 -134 -136 -138 -140 -142 -144 -146 -148 -150 -152 0
-129 -131 -133 -135 -137 -139 -141 -143 -145 -147 -149 -151 -153 0
-130 -132 -134 -136 -138 -140 -142 -144 -146 -148 -150 -152 -154 0
-131 -133 -135 -137 -139 -141 -143 -145 -147 -149 -151 -153 -155 0
-132 -134 -136 -138 -140 -142 -144 -146 -148 -150 -152 -154 -156 0
-133 -135 -137 -139 -141 -143 -145 -147 -149 -151 -153 -155 -157 0
-134 -136 -138 -140 -142 -144 -146 -148 -150 -152 -154 -156 -158 0
-135 -137 -139 -141 -143 -145 -147 -149 -151 -153 -155 -157 -159 0
-136 -138 -140 -142 -144 -146 -148 -150 -152 -154 -156 -158 -160 0
-1 -4 -7 -10 -13 -16 -19 -22 -25 -28 -31 -34 -37 0
-2 -5 -8 -11 -14 -17 -20 -23 -26 -29 -32 -35 -38 0
-3 -6 -9 -12 -15 -18 -21 -24 -27 -30 -33 -36 -39 0
-4 -7 -10 -13 -16 -19 -22 -25 -28 -31 -34 -37 -40 0
-5 -8 -11 -14 -17 -20 -23 -26 -29 -32 -35 -38 -41 0
-6 -9 -12 -15 -18 -21 -24 -27 -30 -33 -36 -39 -42 0
-7 -10 -13 -16 -19 -22 -25 -28 -31 -34 -37 -40 -43 0
-8 -11 -14 -17 -20 -23 -26 -29 -32 -35 -38 -41 -44 0
-9 -12 -15 -18 -21 -24 -27 -30 -33 -36 -39 -42 -45 0
-10 -13 -16 -19 -22 -25 -28 -31 -34 -37 -40 -43 -46 0
-11 -14 -17 -20 -23 -26 -29 -32 -35 -38 -41 -44 -47 0
-12 -15 -18 -21 -24 -27 -30 -33 -36 -39 -42 -45 -48 0
-13 -16 -19 -22 -25 -28 -31 -34 -37 -40 -43 -46 -49 0
-14 -17 -20 -23 -26 -29 -32 -35 -38 -41 -44 -47 -50 0
-15 -18 -21 -24 -27 -30 -33 -36 -39 -42 -45 -48 -51 0
-16 -19 -22 -25 -28 -31 -34 -37 -40 -43 -46 -49 -52 0
-17 -20 -23 -26 -29 -32 -35 -38 -41 -44 -47 -50 -53 0
-18 -21 -24 -27 -30 -33 -36 -39 -42 -45 -48 -51 -54 0
-19 -22 -25 -28 -31 -34 -37 -40 -43 -46 -49 -52 -55 0
-20 -23 -26 -29 -32 -35 -38 -41 -44 -47 -50 -53 -56 0
-21 -24 -27 -30 -33 -36 -39 -42 -45 -48 -51 -54 -57 0
-22 -25 -28 -31 -34 -37 -40 -43 -46 -49 -52 -55 -58 0
-23 -26 -29 -32 -35 -38 -41 -44 -47 -50 -53 -56 -59 0
-24 -27 -30 -33 -36 -39 -42 -45 -48 -51 -54 -57 -60 0
-25 -28 -31 -34 -37 -40 -43 -46 -49 -52 -55 -58 -61 0
-26 -29 -32 -35 -38 -41 -44 -47 -50 -53 -56 -59 -62 0
-27 -30 -33 -36 -39 -42 -45 -48 -51 -54 -57 -60 -63 0
-28 -31 -34 -37 -40 -43 -46 -49 -52 -55 -58 -61 -64 0
-29 -32 -35 -38 -41 -44 -47 -50 -53 -56 -59 -62 -65 0
-30 -33 -36 -39 -42 -45 -48 -51 -54 -57 -60 -63 -66 0
-31 -34 -37 -40 -43 -46 -49 -52 -55 -58 -61 -64 -67 0
-32 -35 -38 -41 -44 -47 -50 -53 -56 -59 -62 -65 -68 0
-33 -36 -39 -42 -45 -48 -51 -54 -57 -60 -63 -66 -69 0
-34 -37 -40 -43 -46 -49 -52 -55 -58 -61 -64 -67 -70 0
-35 -38 -41 -44 -47 -50 -53 -56 -59 -62 -65 -68 -71 0
-36 -39 -42 -45 -48 -51 -54 -57 -60 -63 -66 -69 -72 0
-37 -40 -43 -46 -49 -52 -55 -58 -61 -64 -67 -70 -73 0
-38 -41 -44 -47 -50 -53 -56 -59 -62 -65 -68 -71 -74 0
-39 -42 -45 -48 -51 -54 -57 -60 -63 -66 -69 -72 -75 0
-40 -43 -46 -49 -52 -55 -58 -61 -64 -67 -70 -73 -76 0
-41 -44 -47 -50 -53 -56 -59 -62 -65 -68 -71 -74 -77 0
-42 -45 -48 -51 -54 -57 -60 -63 -66 -69 -72 -75 -78 0
-43 -46 -49 -52 -55 -58 -61 -64 -67 -70 -73 -76 -79 0
-44 -47 -50 -53 -56 -59 -62 -65 -68 -71 -74 -77 -80 0
-45 -48 -51 -54 -57 -60 -63 -66 -69 -72 -75 -78 -81 0
-46 -49 -52 -55 -58 -61 -64 -67 -70 -73 -76 -79 -82 0
-47 -50 -53 -56 -59 -62 -65 -68 -71 -74 -77 -80 -83 0
-48 -51 -54 -57 -60 -63 -66 -69 -72 -75 -78 -81 -84 0
-49 -52 -55 -58 -61 -64 -67 -70 -73 -76 -79 -82 -85 0
-50 -53 -56 -59 -62 -65 -68 -71 -74 -77 -80 -83 -86 0
-51 -54 -57 -60 -63 -66 -69 -72 -75 -78 -81 -84 -87 0
-52 -55 -58 -61 -64 -67 -70 -73 -76 -79 -82 -85 -88 0
-53 -56 -59 -62 -65 -68 -71 -74 -77 -80 -83 -86 -89 0
-54 -57 -60 -63 -66 -69 -72 -75 -78 -81 -84 -87 -90 0
-55 -58 -61 -64 -67 -70 -73 -76 -79 -82 -85 -88 -91 0
-56 -59 -62 -65 -68 -71 -74 -77 -80 -83 -86 -89 -92 0
-57 -60 -63 -66 -69 -72 -75 -78 -81 -84 -87 -90 -93 0
-58 -61 -64 -67 -70 -73 -76 -79 -82 -85 -88 -91 -94 0
-59 -62 -65 -68 -71 -74 -77 -80 -83 -86 -89 -92 -95 0
-60 -63 -66 -69 -72 -75 -78 -81 -84 -87 -90 -93 -96 0
-61 -64 -67 -70 -73 -76 -79 -82 -85 -88 -91 -94 -97 0
-62 -65 -68 -71 -74 -77 -80 -83 -86 -89 -92 -95 -98 0
-63 -66 -69 -72 -75 -78 -81 -84 -87 -90 -93 -96 -99 0
-64 -67 -70 -73 -76 -79 -82 -85 -88 -91 -94 -97 -100 0
-65 -68 -71 -74 -77 -80 -83 -86 -89 -92 -95 -98 -101 0
-66 -69 -72 -75 -78 -81 -84 -87 -90 -93 -96 -99 -102 0
-67 -70 -73 -76 -79 -82 -85 -88 -91 -94 -97 -100 -103 0
-68 -71 -74 -77 -80 -83 -86 -89 -92 -95 -98 -101 -104 0
-69 -72 -75 -78 -81 -84 -87 -90 -93 -96 -99 -102 -105 0
-70 -73 -76 -79 -82 -85 -88 -91 -94 -97 -100 -103 -106 0
-71 -74 -77 -80 -83 -86 -89 -92 -95 -98 -101 -104 -107 0
-72 -75 -78 -81 -84 -87 -90 -93 -96 -99 -102 -105 -108 0
-73 -76 -79 -82 -85 -88 -91 -94 -97 -100 -103 -106 -109 0
-74 -77 -80 -83 -86 -89 -92 -95 -98 -101 -104 -107 -110 0
-75 -78 -81 -84 -87 -90 -93 -96 -99 -102 -105 -108 -111 0
-76 -79 -82 -85 -88 -91 -94 -97 -100 -103 -106 -109 -112 0
-77 -80 -83 -86 -89 -92 -95 -98 -101 -104 -107 -110 -113 0
-78 -81 -84 -87 -90 -93 -96 -99 -102 -105 -108 -111 -114 0
-79 -82 -85 -88 -91 -94 -97 -100 -103 -106 -109 -112 -115 0
-80 -83 -86 -89 -92 -95 -98 -101 -104 -107 -110 -113 -116 0
-81 -84 -87 -90 -93 -96 -99 -102 -105 -108 -111 -114 -117 0
-82 -85 -88 -91 -94 -97 -100 -103 -106 -109 -112 -115 -118 0
-83 -86 -89 -92 -95 -98 -101 -104 -107 -110 -113 -116 -119 0
-84 -87 -90 -93 -96 -99 -102 -105 -108 -111 -114 -117 -120 0
-85 -88 -91 -94 -97 -100 -103 -106 -109 -112 -115 -118 -121 0
-86 -89 -92 -95 -98 -101 -104 -107 -110 -113 -116 -119 -122 0
-87 -90 -93 -96 -99 -102 -105 -108 -111 -114 -117 -120 -123 0
-88 -91 -94 -97 -100 -103 -106 -109 -112 -115 -118 -121 -124 0
-89 -92 -95 -98 -101 -104 -107 -110 -113 -116 -119 -122 -125 0
-90 -93 -96 -99 -102 -105 -108 -111 -114 -117 -120 -123 -126 0
-91 -94 -97 -100 -103 -106 -109 -112 -115 -118 -121 -124 -127 0
-92 -95 -98 -101 -104 -107 -110 -113 -116 -119 -122 -125 -128 0
-93 -96 -99 -102 -105 -108 -111 -114 -117 -120 -123 -126 -129 0
-94 -97 -100 -103 -106 -109 -112 -115 -118 -121 -124 -127 -130 0
-95 -98 -101 -104 -107 -110 -113 -116 -119 -122 -125 -128 -131 0
-96 -99 -102 -105 -108 -111 -114 -117 -120 -123 -126 -129 -132 0
-97 -100 -103 -106 -109 -112 -115 -118 -121 -124 -127 -130 -133 0
-98 -101 -104 -107 -110 -113 -116 -119 -122 -125 -128 -131 -134 0
-99 -102 -105 -108 -111 -114 -117 -120 -123 -126 -129 -132 -135 0
-100 -103 -106 -109 -112 -115 -118 -121 -124 -127 -130 -133 -136 0
-101 -104 -107 -110 -113 -116 -119 -122 -125 -128 -131 -134 -137 0
-102 -105 -108 -111 -114 -117 -120 -123 -126 -129 -132 -135 -138 0
-103 -106 -109 -112 -115 -118 -121 -124 -127 -130 -133 -136 -139 0
-104 -107 -110 -113 -116 -119 -122 -125 -128 -131 -134 -137 -140 0
-105 -108 -111 -114 -117 -120 -123 -126 -129 -132 -135 -138 -141 0
-106 -109 -112 -115 -118 -121 -124 -127 -130 -133 -136 -139 -142 0
-107 -110 -113 -116 -119 -122 -125 -128 -131 -134 -137 -140 -143 0
-108 -111 -114 -117 -120 -123 -126 -129 -132 -135 -138 -141 -144 0
-109 -112 -115 -118 -121 -124 -127 -130 -133 -136 -139 -142 -145 0
-110 -113 -116 -119 -122 -125 -128 -131 -134 -137 -140 -143 -146 0
-111 -114 -117 -120 -123 -126 -129 -132 -135 -138 -141 -144 -147 0
-112 -115 -118 -121 -124 -127 -130 -133 -136 -139 -142 -145 -148 0
-113 -116 -119 -122 -125 -128 -131 -134 -137 -140 -143 -146 -149 0
-114 -117 -120 -123 -126 -129 -132 -135 -138 -141 -144 -147 -150 0
-115 -118 -121 -124 -127 -130 -133 -136 -139 -142 -145 -148 -151 0
-116 -119 -122 -125 -128 -131 -134 -137 -140 -143 -146 -149 -152 0
-117 -120 -123 -126 -129 -132 -135 -138 -141 -144 -147 -150 -153 0
-118 -121 -124 -127 -130 -133 -136 -139 -142 -145 -148 -151 -154 0
-119 -122 -125 -128 -131 -134 -137 -140 -143 -146 -149 -152 -155 0
-120 -123 -126 -129 -132 -135 -138 -141 -144 -147 -150 -153 -156 0
-121 -124 -127 -130 -133 -136 -139 -142 -145 -148 -151 -154 -157 0
-122 -125 -128 -131 -134 -137 -140 -143 -146 -149 -152 -155 -158 0
-123 -126 -129 -132 -135 -138 -141 -144 -147 -150 -153 -156 -159 0
-124 -127 -130 -133 -136 -139 -142 -145 -148 -151 -154 -157 -160 0
-1 -5 -9 -13 -17 -21 -25 -29 -33 -37 -41 -45 -49 0
-2 -6 -10 -14 -18 -22 -26 -30 -34 -38 -42 -46 -50 0
-3 -7 -11 -15 -19 -23 -27 -31 -35 -39 -43 -47 -51 0
-4 -8 -12 -16 -20 -24 -28 -32 -36 -40 -44 -48 -52 0
-5 -9 -13 -17 -21 -25 -29 -33 -37 -41 -45 -49 -53 0
-6 -10 -14 -18 -22 -26 -30 -34 -38 -42 -46 -50 -54 0
-7 -11 -15 -19 -23 -27 -31 -35 -39 -43 -47 -51 -55 0
-8 -12 -16 -20 -24 -28 -32 -36 -40 -44 -48 -52 -56 0
-9 -13 -17 -21 -25 -29 -33 -37 -41 -45 -49 -53 -57 0
-10 -14 -18 -22 -26 -30 -34 -38 -42 -46 -50 -54 -58 0
-11 -15 -19 -23 -27 -31 -35 -39 -43 -47 -51 -55 -59 0
-12 -16 -20 -24 -28 -32 -36 -40 -44 -48 -52 -56 -60 0
-13 -17 -21 -25 -29 -33 -37 -41 -45 -49 -53 -57 -61 0
-14 -18 -22 -26 -30 -34 -38 -42 -46 -50 -54 -58 -62 0
-15 -19 -23 -27 -31 -35 -39 -43 -47 -51 -55 -59 -63 0
-16 -20 -24 -28 -32 -36 -40 -44 -48 -52 -56 -60 -64 0
-17 -21 -25 -29 -33 -37 -41 -45 -49 -53 -57 -61 -65 0
-18 -22 -26 -30 -34 -38 -42 -46 -50 -54 -58 -62 -66 0
-19 -23 -27 -31 -35 -39 -43 -47 -51 -55 -59 -63 -67 0
-20 -24 -28 -32 -36 -40 -44 -48 -52 -56 -60 -64 -68 0
-21 -25 -29 -33 -37 -41 -45 -49 -53 -57 -61 -65 -69 0
-22 -26 -30 -34 -38 -42 -46 -50 -54 -58 -62 -66 -70 0
-23 -27 -31 -35 -39 -43 -47 -51 -55 -59 -63 -67 -71 0
-24 -28 -32 -36 -40 -44 -48 -52 -56 -60 -64 -68 -72 0
-25 -29 -33 -37 -41 -45 -49 -53 -57 -61 -65 -69 -73 0
-26 -30 -34 -38 -42 -46 -50 -54 -58 -62 -66 -70 -74 0
-27 -31 -35 -39 -43 -47 -51 -55 -59 -63 -67 -71 -75 0
-28 -32 -36 -40 -44 -48 -52 -56 -60 -64 -68 -72 -76 0
-29 -33 -37 -41 -45 -49 -53 -57 -61 -65 -69 -73 -77 0
-30 -34 -38 -42 -46 -50 -54 -58 -62 -66 -70 -74 -78 0
-31 -35 -39 -43 -47 -51 -55 -59 -63 -67 -71 -75 -79 0
-32 -36 -40 -44 -48 -52 -56 -60 -64 -68 -72 -76 -80 0
-33 -37 -41 -45 -49 -53 -57 -61 -65 -69 -73 -77 -81 0
-34 -38 -42 -46 -50 -54 -58 -62 -66 -70 -74 -78 -82 0
-35 -39 -43 -47 -51 -55 -59 -63 -67 -71 -75 -79 -83 0
-36 -40 -44 -48 -52 -56 -60 -64 -68 -72 -76 -80 -84 0
-37 -41 -45 -49 -53 -57 -61 -65 -69 -73 -77 -81 -85 0
-38 -42 -46 -50 -54 -58 -62 -66 -70 -74 -78 -82 -86 0
-39 -43 -47 -51 -55 -59 -63 -67 -71 -75 -79 -83 -87 0
-40 -44 -48 -52 -56 -60 -64 -68 -72 -76 -80 -84 -88 0
-41 -45 -49 -53 -57 -61 -65 -69 -73 -77 -81 -85 -89 0
-42 -46 -50 -54 -58 -62 -66 -70 -74 -78 -82 -86 -90 0
-43 -47 -51 -55 -59 -63 -67 -71 -75 -79 -83 -87 -91 0
-44 -48 -52 -56 -60 -64 -68 -72 -76 -80 -84 -88 -92 0
-45 -49 -53 -57 -61 -65 -69 -73 -77 -81 -85 -89 -93 0
-46 -50 -54 -58 -62 -66 -70 -74 -78 -82 -86 -90 -94 0
-47 -51 -55 -59 -63 -67 -71 -75 -79 -83 -87 -91 -95 0
-48 -52 -56 -60 -64 -68 -72 -76 -80 -84 -88 -92 -96 0
-49 -53 -57 -61 -65 -69 -73 -77 -81 -85 -89 -93 -97 0
-50 -54 -58 -62 -66 -70 -74 -78 -82 -86 -90 -94 -98 0
-51 -55 -59 -63 -67 -71 -75 -79 -83 -87 -91 -95 -99 0
-52 -56 -60 -64 -68 -72 -76 -80 -84 -88 -92 -96 -100 0
-53 -57 -61 -65 -69 -73 -77 -81 -85 -89 -93 -97 -101 0
-54 -58 -62 -66 -70 -74 -78 -82 -86 -90 -94 -98 -102 0
-55 -59 -63 -67 -71 -75 -79 -83 -87 -91 -95 -99 -103 0
-56 -60 -64 -68 -72 -76 -80 -84 -88 -92 -96 -100 -104 0
-57 -61 -65 -69 -73 -77 -81 -85 -89 -93 -97 -101 -105 0
-58 -62 -66 -70 -74 -78 -82 -86 -90 -94 -98 -102 -106 0
-59 -63 -67 -71 -75 -79 -83 -87 -91 -95 -99 -103 -107 0
-60 -64 -68 -72 -76 -80 -84 -88 -92 -96 -100 -104 -108 0
-61 -65 -69 -73 -77 -81 -85 -89 -93 -97 -101 -105 -109 0
-62 -66 -70 -74 -78 -82 -86 -90 -94 -98 -102 -106 -110 0
-63 -67 -71 -75 -79 -83 -87 -91 -95 -99 -103 -107 -111 0
-64 -68 -72 -76 -80 -84 -88 -92 -96 -100 -104 -108 -112 0
-65 -69 -73 -77 -81 -85 -89 -93 -97 -101 -105 -109 -113 0
-66 -70 -74 -78 -82 -86 -90 -94 -98 -102 -106 -110 -114 0
-67 -71 -75 -79 -83 -87 -91 -95 -99 -103 -107 -111 -115 0
-68 -72 -76 -80 -84 -88 -92 -96 -100 -104 -108 -112 -116 0
-69 -73 -77 -81 -85 -89 -93 -97 -101 -105 -109 -113 -117 0
-70 -74 -78 -82 -86 -90 -94 -98 -102 -106 -110 -114 -118 0
-71 -75 -79 -83 -87 -91 -95 -99 -103 -107 -111 -115 -119 0
-72 -76 -80 -84 -88 -92 -96 -100 -104 -108 -112 -116 -120 0
-73 -77 -81 -85 -89 -93 -97 -101 -105 -109 -113 -117 -121 0
-74 -78 -82 -86 -90 -94 -98 -102 -106 -110 -114 -118 -122 0
-75 -79 -83 -87 -91 -95 -99 -103 -107 -111 -115 -119 -123 0
-76 -80 -84 -88 -92 -96 -100 -104 -108 -112 -116 -120 -124 0
-77 -81 -85 -89 -93 -97 -101 -105 -109 -113 -117 -121 -125 0
-78 -82 -86 -90 -94 -98 -102 -106 -110 -114 -118 -122 -126 0
-79 -83 -87 -91 -95 -99 -103 -107 -111 -115 -119 -123 -127 0
-80 -84 -88 -92 -96 -100 -104 -108 -112 -116 -120 -124 -128 0
-81 -85 -89 -93 -97 -101 -105 -109 -113 -117 -121 -125 -129 0
-82 -86 -90 -94 -98 -102 -106 -110 -114 -118 -122 -126 -130 0
-83 -87 -91 -95 -99 -103 -107 -111 -115 -119 -123 -127 -131 0
-84 -88 -92 -96 -100 -104 -108 -112 -116 -120 -124 -128 -132 0
-85 -89 -93 -97 -101 -105 -109 -113 -117 -121 -125 -129 -133 0
-86 -90 -94 -98 -102 -106 -110 -114 -118 -122 -126 -130 -134 0
-87 -91 -95 -99 -103 -107 -111 -115 -119 -123 -127 -131 -135 0
-88 -92 -96 -100 -104 -108 -112 -116 -120 -124 -128 -132 -136 0
-89 -93 -97 -101 -105 -109 -113 -117 -121 -125 -129 -133 -137 0
-90 -94 -98 -102 -106 -110 -114 -118 -122 -126 -130 -134 -138 0
-91 -95 -99 -103 -107 -111 -115 -119 -123 -127 -131 -135 -139 0
-92 -96 -100 -104 -108 -112 -116 -120 -124 -128 -132 -136 -140 0
-93 -97 -101 -105 -109 -113 -117 -121 -125 -129 -133 -137 -141 0
-94 -98 -102 -106 -110 -114 -118 -122 -126 -130 -134 -138 -142 0
-95 -99 -103 -107 -111 -115 -119 -123 -127 -131 -135 -139 -143 0
-96 -100 -104 -108 -112 -116 -120 -124 -128 -132 -136 -140 -144 0
-97 -101 -105 -109 -113 -117 -121 -125 -129 -133 -137 -141 -145 0
-98 -102 -106 -110 -114 -118 -122 -126 -130 -134 -138 -142 -146 0
-99 -103 -107 -111 -115 -119 -123 -127 -131 -135 -139 -143 -147 0
-100 -104 -108 -112 -116 -120 -124 -128 -132 -136 -140 -144 -148 0
-101 -105 -109 -113 -117 -121 -125 -129 -133 -137 -141 -145 -149 0
-102 -106 -110 -114 -118 -122 -126 -130 -134 -138 -142 -146 -150 0
-103 -107 -111 -115 -119 -123 -127 -131 -135 -139 -143 -147 -151 0
-104 -108 -112 -116 -120 -124 -128 -132 -136 -140 -144 -148 -152 0
-105 -109 -113 -117 -121 -125 -129 -133 -137 -141 -145 -149 -153 0
-106 -110 -114 -118 -122 -126 -130 -134 -138 -142 -146 -150 -154 0
-107 -111 -115 -119 -123 -127 -131 -135 -139 -143 -147 -151 -155 0
-108 -112 -116 -120 -124 -128 -132 -136 -140 -144 -148 -152 -156 0
-109 -113 -117 -121 -125 -129 -133 -137 -141 -145 -149 -153 -157 0
-110 -114 -118 -122 -126 -130 -134 -138 -142 -146 -150 -154 -158 0
-111 -115 -119 -123 -127 -131 -135 -139 -143 -147 -151 -155 -159 0
-112 -116 -120 -124 -128 -132 -136 -140 -144 -148 -152 -156 -160 0
-1 -6 -11 -16 -21 -26 -31 -36 -41 -46 -51 -56 -61 0
-2 -7 -12 -17 -22 -27 -32 -37 -42 -47 -52 -57 -62 0
-3 -8 -13 -18 -23 -28 -33 -38 -43 -48 -53 -58 -63 0
-4 -9 -14 -19 -24 -29 -34 -39 -44 -49 -54 -59 -64 0
-5 -10 -15 -20 -25 -30 -35 -40 -45 -50 -55 -60 -65 0
-6 -11 -16 -21 -26 -31 -36 -41 -46 -51 -56 -61 -66 0
-7 -12 -17 -22 -27 -32 -37 -42 -47 -52 -57 -62 -67 0
-8 -13 -18 -23 -28 -33 -38 -43 -48 -53 -58 -63 -68 0
-9 -14 -19 -24 -29 -34 -39 -44 -49 -54 -59 -64 -69 0
-10 -15 -20 -25 -30 -35 -40 -45 -50 -55 -60 -65 -70 0
-11 -16 -21 -26 -31 -36 -41 -46 -51 -56 -61 -66 -71 0
-12 -17 -22 -27 -32 -37 -42 -47 -52 -57 -62 -67 -72 0
-13 -18 -23 -28 -33 -38 -43 -48 -53 -58 -63 -68 -73 0
-14 -19 -24 -29 -34 -39 -44 -49 -54 -59 -64 -69 -74 0
-15 -20 -25 -30 -35 -40 -45 -50 -55 -60 -65 -70 -75 0
-16 -21 -26 -31 -36 -41 -46 -51 -56 -61 -66 -71 -76 0
-17 -22 -27 -32 -37 -42 -47 -52 -57 -62 -67 -72 -77 0
-18 -23 -28 -33 -38 -43 -48 -53 -58 -63 -68 -73 -78 0
-19 -24 -29 -34 -39 -44 -49 -54 -59 -64 -69 -74 -79 0
-20 -25 -30 -35 -40 -45 -50 -55 -60 -65 -70 -75 -80 0
-21 -26 -31 -36 -41 -46 -51 -56 -61 -66 -71 -76 -81 0
-22 -27 -32 -37 -42 -47 -52 -57 -62 -67 -72 -77 -82 0
-23 -28 -33 -38 -43 -48 -53 -58 -63 -68 -73 -78 -83 0
-24 -29 -34 -39 -44 -49 -54 -59 -64 -69 -74 -79 -84 0
-25 -30 -35 -40 -45 -50 -55 -60 -65 -70 -75 -80 -85 0
-26 -31 -36 -41 -46 -51 -56 -61 -66 -71 -76 -81 -86 0
-27 -32 -37 -42 -47 -52 -57 -62 -67 -72 -77 -82 -87 0
-28 -33 -38 -43 -48 -53 -58 -63 -68 -73 -78 -83 -88 0
-29 -34 -39 -44 -49 -54 -59 -64 -69 -74 -79 -84 -89 0
-30 -35 -40 -45 -50 -55 -60 -65 -70 -75 -80 -85 -90 0
-31 -36 -41 -46 -51 -56 -61 -66 -71 -76 -81 -86 -91 0
-32 -37 -42 -47 -52 -57 -62 -67 -72 -77 -82 -87 -92 0
-33 -38 -43 -48 -53 -58 -63 -68 -73 -78 -83 -88 -93 0
-34 -39 -44 -49 -54 -59 -64 -69 -74 -79 -84 -89 -94 0
-35 -40 -45 -50 -55 -60 -65 -70 -75 -80 -85 -90 -95 0
-36 -41 -46 -51 -56 -61 -66 -71 -76 -81 -86 -91 -96 0
-37 -42 -47 -52 -57 -62 -67 -72 -77 -82 -87 -92 -97 0
-38 -43 -48 -53 -58 -63 -68 -73 -78 -83 -88 -93 -98 0
-39 -44 -49 -54 -59 -64 -69 -74 -79 -84 -89 -94 -99 0
-40 -45 -50 -55 -60 -65 -70 -75 -80 -85 -90 -95 -100 0
-41 -46 -51 -56 -61 -66 -71 -76 -81 -86 -91 -96 -101 0
-42 -47 -52 -57 -62 -67 -72 -77 -82 -87 -92 -97 -102 0
-43 -48 -53 -58 -63 -68 -73 -78 -83 -88 -93 -98 -103 0
-44 -49 -54 -59 -64 -69 -74 -79 -84 -89 -94 -99 -104 0
-45 -50 -55 -60 -65 -70 -75 -80 -85 -90 -95 -100 -105 0
-46 -51 -56 -61 -66 -71 -76 -81 -86 -91 -96 -101 -106 0
-47 -52 -57 -62 -67 -72 -77 -82 -87 -92 -97 -102 -107 0
-48 -53 -58 -63 -68 -73 -78 -83 -88 -93 -98 -103 -108 0
-49 -54 -59 -64 -69 -74 -79 -84 -89 -94 -99 -104 -109 0
-50 -55 -60 -65 -70 -75 -80 -85 -90 -95 -100 -105 -110 0
-51 -56 -61 -66 -71 -76 -81 -86 -91 -96 -101 -106 -111 0
-52 -57 -62 -67 -72 -77 -82 -87 -92 -97 -102 -107 -112 0
-53 -58 -63 -68 -73 -78 -83 -88 -93 -98 -103 -108 -113 0
-54 -59 -64 -69 -74 -79 -84 -89 -94 -99 -104 -109 -114 0
-55 -60 -65 -70 -75 -80 -85 -90 -95 -100 -105 -110 -115 0
-56 -61 -66 -71 -76 -81 -86 -91 -96 -101 -106 -111 -116 0
-57 -62 -67 -72 -77 -82 -87 -92 -97 -102 -107 -112 -117 0
-58 -63 -68 -73 -78 -83 -88 -93 -98 -103 -108 -113 -118 0
-59 -64 -69 -74 -79 -84 -89 -94 -99 -104 -109 -114 -119 0
-60 -65 -70 -75 -80 -85 -90 -95 -100 -105 -110 -115 -120 0
-61 -66 -71 -76 -81 -86 -91 -96 -101 -106 -111 -116 -121 0
-62 -67 -72 -77 -82 -87 -92 -97 -102 -107 -112 -117 -122 0
-63 -68 -73 -78 -83 -88 -93 -98 -103 -108 -113 -118 -123 0
-64 -69 -74 -79 -84 -89 -94 -99 -104 -109 -114 -119 -124 0
-65 -70 -75 -80 -85 -90 -95 -100 -105 -110 -115 -120 -125 0
-66 -71 -76 -81 -86 -91 -96 -101 -106 -111 -116 -121 -126 0
-67 -72 -77 -82 -87 -92 -97 -102 -107 -112 -117 -122 -127 0
-68 -73 -78 -83 -88 -93 -98 -103 -108 -113 -118 -123 -128 0
-69 -74 -79 -84 -89 -94 -99 -104 -109 -114 -119 -124 -129 0
-70 -75 -80 -85 -90 -95 -100 -105 -110 -115 -120 -125 -130 0
-71 -76 -81 -86 -91 -96 -101 -106 -111 -116 -121 -126 -131 0
-72 -77 -82 -87 -92 -97 -102 -107 -112 -117 -122 -127 -132 0
-73 -78 -83 -88 -93 -98 -103 -108 -113 -118 -123 -128 -133 0
-74 -79 -84 -89 -94 -99 -104 -109 -114 -119 -124 -129 -134 0
-75 -80 -85 -90 -95 -100 -105 -110 -115 -120 -125 -130 -135 0
-76 -81 -86 -91 -96 -101 -106 -111 -116 -121 -126 -131 -136 0
-77 -82 -87 -92 -97 -102 -107 -112 -117 -122 -127 -132 -137 0
-78 -83 -88 -93 -98 -103 -108 -113 -118 -123 -128 -133 -138 0
-79 -84 -89 -94 -99 -104 -109 -114 -119 -124 -129 -134 -139 0
-80 -85 -90 -95 -100 -105 -110 -115 -120 -125 -130 -135 -140 0
-81 -86 -91 -96 -101 -106 -111 -116 -121 -126 -131 -136 -141 0
-82 -87 -92 -97 -102 -107 -112 -117 -122 -127 -132 -137 -142 0
-83 -88 -93 -98 -103 -108 -113 -118 -123 -128 -133 -138 -143 0
-84 -89 -94 -99 -104 -109 -114 -119 -124 -129 -134 -139 -144 0
-85 -90 -95 -100 -105 -110 -115 -120 -125 -130 -135 -140 -145 0
-86 -91 -96 -101 -106 -111 -116 -121 -126 -131 -136 -141 -146 0
-87 -92 -97 -102 -107 -112 -117 -122 -127 -132 -137 -142 -147 0
-88 -93 -98 -103 -108 -113 -118 -123 -128 -133 -138 -143 -148 0
-89 -94 -99 -104 -109 -114 -119 -124 -129 -134 -139 -144 -149 0
-90 -95 -100 -105 -110 -115 -120 -125 -130 -135 -140 -145 -150 0
-91 -96 -101 -106 -111 -116 -121 -126 -131 -136 -141 -146 -151 0
-92 -97 -102 -107 -112 -117 -122 -127 -132 -137 -142 -147 -152 0
-93 -98 -103 -108 -113 -118 -123 -128 -133 -138 -143 -148 -153 0
-94 -99 -104 -109 -114 -119 -124 -129 -134 -139 -144 -149 -154 0
-95 -100 -105 -110 -115 -120 -125 -130 -135 -140 -145 -150 -155 0
-96 -101 -106 -111 -116 -121 -126 -131 -136 -141 -146 -151 -156 0
-97 -102 -107 -112 -117 -122 -127 -132 -137 -142 -147 -152 -157 0
-98 -103 -108 -113 -118 -123 -128 -133 -138 -143 -148 -153 -158 0
-99 -104 -109 -114 -119 -124 -129 -134 -139 -144 -149 -154 -159 0
-100 -105 -110 -115 -120 -125 -130 -135 -140 -145 -150 -155 -160 0
-1 -7 -13 -19 -25 -31 -37 -43 -49 -55 -61 -67 -73 0
-2 -8 -14 -20 -26 -32 -38 -44 -50 -56 -62 -68 -74 0
-3 -9 -15 -21 -27 -33 -39 -45 -51 -57 -63 -69 -75 0
-4 -10 -16 -22 -28 -34 -40 -46 -52 -58 -64 -70 -76 0
-5 -11 -17 -23 -29 -35 -41 -47 -53 -59 -65 -71 -77 0
-6 -12 -18 -24 -30 -36 -42 -48 -54 -60 -66 -72 -78 0
-7 -13 -19 -25 -31 -37 -43 -49 -55 -61 -67 -73 -79 0
-8 -14 -20 -26 -32 -38 -44 -50 -56 -62 -68 -74 -80 0
-9 -15 -21 -27 -33 -39 -45 -51 -57 -63 -69 -75 -81 0
-10 -16 -22 -28 -34 -40 -46 -52 -58 -64 -70 -76 -82 0
-11 -17 -23 -29 -35 -41 -47 -53 -59 -65 -71 -77 -83 0
-12 -18 -24 -30 -36 -42 -48 -54 -60 -66 -72 -78 -84 0
-13 -19 -25 -31 -37 -43 -49 -55 -61 -67 -73 -79 -85 0
-14 -20 -26 -32 -38 -44 -50 -56 -62 -68 -74 -80 -86 0
-15 -21 -27 -33 -39 -45 -51 -57 -63 -69 -75 -81 -87 0
-16 -22 -28 -34 -40 -46 -52 -58 -64 -70 -76 -82 -88 0
-17 -23 -29 -35 -41 -47 -53 -59 -65 -71 -77 -83 -89 0
-18 -24 -30 -36 -42 -48 -54 -60 -66 -72 -78 -84 -90 0
-19 -25 -31 -37 -43 -49 -55 -61 -67 -73 -79 -85 -91 0
-20 -26 -32 -38 -44 -50 -56 -62 -68 -74 -80 -86 -92 0
-21 -27 -33 -39 -45 -51 -57 -63 -69 -75 -81 -87 -93 0
-22 -28 -34 -40 -46 -52 -58 -64 -70 -76 -82 -88 -94 0
-23 -29 -35 -41 -47 -53 -59 -65 -71 -77 -83 -89 -95 0
-24 -30 -36 -42 -48 -54 -60 -66 -72 -78 -84 -90 -96 0
-25 -31 -37 -43 -49 -55 -61 -67 -73 -79 -85 -91 -97 0
-26 -32 -38 -44 -50 -56 -62 -68 -74 -80 -86 -92 -98 0
-27 -33 -39 -45 -51 -57 -63 -69 -75 -81 -87 -93 -99 0
-28 -34 -40 -46 -52 -58 -64 -70 -76 -82 -88 -94 -100 0
-29 -35 -41 -47 -53 -59 -65 -71 -77 -83 -89 -95 -101 0
-30 -36 -42 -48 -54 -60 -66 -72 -78 -84 -90 -96 -102 0
-31 -37 -43 -49 -55 -61 -67 -73 -79 -85 -91 -97 -103 0
-32 -38 -44 -50 -56 -62 -68 -74 -80 -86 -92 -98 -104 0
-33 -39 -45 -51 -57 -63 -69 -75 -81 -87 -93 -99 -105 0
-34 -40 -46 -52 -58 -64 -70 -76 -82 -88 -94 -100 -106 0
-35 -41 -47 -53 -59 -65 -71 -77 -83 -89 -95 -101 -107 0
-36 -42 -48 -54 -60 -66 -72 -78 -84 -90 -96 -102 -108 0
-37 -43 -49 -55 -61 -67 -73 -79 -85 -91 -97 -103 -109 0
-38 -44 -50 -56 -62 -68 -74 -80 -86 -92 -98 -104 -110 0
-39 -45 -51 -57 -63 -69 -75 -81 -87 -93 -99 -105 -111 0
-40 -46 -52 -58 -64 -70 -76 -82 -88 -94 -100 -106 -112 0
-41 -47 -53 -59 -65 -71 -77 -83 -89 -95 -101 -107 -113 0
-42 -48 -54 -60 -66 -72 -78 -84 -90 -96 -102 -108 -114 0
-43 -49 -55 -61 -67 -73 -79 -85 -91 -97 -103 -109 -115 0
-44 -50 -56 -62 -68 -74 -80 -86 -92 -98 -104 -110 -116 0
-45 -51 -57 -63 -69 -75 -81 -87 -93 -99 -105 -111 -117 0
-46 -52 -58 -64 -70 -76 -82 -88 -94 -100 -106 -112 -118 0
-47 -53 -59 -65 -71 -77 -83 -89 -95 -101 -107 -113 -119 0
-48 -54 -60 -66 -72 -78 -84 -90 -96 -102 -108 -114 -120 0
-49 -55 -61 -67 -73 -79 -85 -91 -97 -103 -109 -115 -121 0
-50 -56 -62 -68 -74 -80 -86 -92 -98 -104 -110 -116 -122 0
-51 -57 -63 -69 -75 -81 -87 -93 -99 -105 -111 -117 -123 0
-52 -58 -64 -70 -76 -82 -88 -94 -100 -106 -112 -118 -124 0
-53 -59 -65 -71 -77 -83 -89 -95 -101 -107 -113 -119 -125 0
-54 -60 -66 -72 -78 -84 -90 -96 -102 -108 -114 -120 -126 0
-55 -61 -67 -73 -79 -85 -91 -97 -103 -109 -115 -121 -127 0
-56 -62 -68 -74 -80 -86 -92 -98 -104 -110 -116 -122 -128 0
-57 -63 -69 -75 -81 -87 -93 -99 -105 -111 -117 -123 -129 0
-58 -64 -70 -76 -82 -88 -94 -100 -106 -112 -118 -124 -130 0
-59 -65 -71 -77 -83 -89 -95 -101 -107 -113 -119 -125 -131 0
-60 -66 -72 -78 -84 -90 -96 -102 -108 -114 -120 -126 -132 0
-61 -67 -73 -79 -85 -91 -97 -103 -109 -115 -121 -127 -133 0
-62 -68 -74 -80 -86 -92 -98 -104 -110 -116 -122 -128 -134 0
-63 -69 -75 -81 -87 -93 -99 -105 -111 -117 -123 -129 -135 0
-64 -70 -76 -82 -88 -94 -100 -106 -112 -118 -124 -130 -136 0
-65 -71 -77 -83 -89 -95 -101 -107 -113 -119 -125 -131 -137 0
-66 -72 -78 -84 -90 -96 -102 -108 -114 -120 -126 -132 -138 0
-67 -73 -79 -85 -91 -97 -103 -109 -115 -121 -127 -133 -139 0
-68 -74 -80 -86 -92 -98 -104 -110 -116 -122 -128 -134 -140 0
-69 -75 -81 -87 -93 -99 -105 -111 -117 -123 -129 -135 -141 0
-70 -76 -82 -88 -94 -100 -106 -112 -118 -124 -130 -136 -142 0
-71 -77 -83 -89 -95 -101 -107 -113 -119 -125 -131 -137 -143 0
-72 -78 -84 -90 -96 -102 -108 -114 -120 -126 -132 -138 -144 0
-73 -79 -85 -91 -97 -103 -109 -115 -121 -127 -133 -139 -145 0
-74 -80 -86 -92 -98 -104 -110 -116 -122 -128 -134 -140 -146 0
-75 -81 -87 -93 -99 -105 -111 -117 -123 -129 -135 -141 -147 0
-76 -82 -88 -94 -100 -106 -112 -118 -124 -130 -136 -142 -148 0
-77 -83 -89 -95 -101 -107 -113 -119 -125 -131 -137 -143 -149 0
-78 -84 -90 -96 -102 -108 -114 -120 -126 -132 -138 -144 -150 0
-79 -85 -91 -97 -103 -109 -115 -121 -127 -133 -139 -145 -151 0
-80 -86 -92 -98 -104 -110 -116 -122 -128 -134 -140 -146 -152 0
-81 -87 -93 -99 -105 -111 -117 -123 -129 -135 -141 -147 -153 0
-82 -88 -94 -100 -106 -112 -118 -124 -130 -136 -142 -148 -154 0
-83 -89 -95 -101 -107 -113 -119 -125 -131 -137 -143 -149 -155 0
-84 -90 -96 -102 -108 -114 -120 -126 -132 -138 -144 -150 -156 0
-85 -91 -97 -103 -109 -115 -121 -127 -133 -139 -145 -151 -157 0
-86 -92 -98 -104 -110 -116 -122 -128 -134 -140 -146 -152 -158 0
-87 -93 -99 -105 -111 -117 -123 -129 -135 -141 -147 -153 -159 0
-88 -94 -100 -106 -112 -118 -124 -130 -136 -142 -148 -154 -160 0
-1 -8 -15 -22 -29 -36 -43 -50 -57 -64 -71 -78 -85 0
-2 -9 -16 -23 -30 -37 -44 -51 -58 -65 -72 -79 -86 0
-3 -10 -17 -24 -31 -38 -45 -52 -59 -66 -73 -80 -87 0
-4 -11 -18 -25 -32 -39 -46 -53 -60 -67 -74 -81 -88 0
-5 -12 -19 -26 -33 -40 -47 -54 -61 -68 -75 -82 -89 0
-6 -13 -20 -27 -34 -41 -48 -55 -62 -69 -76 -83 -90 0
-7 -14 -21 -28 -35 -42 -49 -56 -63 -70 -77 -84 -91 0
-8 -15 -22 -29 -36 -43 -50 -57 -64 -71 -78 -85 -92 0
-9 -16 -23 -30 -37 -44 -51 -58 -65 -72 -79 -86 -93 0
-10 -17 -24 -31 -38 -45 -52 -59 -66 -73 -80 -87 -94 0
-11 -18 -25 -32 -39 -46 -53 -60 -67 -74 -81 -88 -95 0
-12 -19 -26 -33 -40 -47 -54 -61 -68 -75 -82 -89 -96 0
-13 -20 -27 -34 -41 -48 -55 -62 -69 -76 -83 -90 -97 0
-14 -21 -28 -35 -42 -49 -56 -63 -70 -77 -84 -91 -98 0
-15 -22 -29 -36 -43 -50 -57 -64 -71 -78 -85 -92 -99 0
-16 -23 -30 -37 -44 -51 -58 -65 -72 -79 -86 -93 -100 0
-17 -24 -31 -38 -45 -52 -59 -66 -73 -80 -87 -94 -101 0
-18 -25 -32 -39 -46 -53 -60 -67 -74 -81 -88 -95 -102 0
-19 -26 -33 -40 -47 -54 -61 -68 -75 -82 -89 -96 -103 0
-20 -27 -34 -41 -48 -55 -62 -69 -76 -83 -90 -97 -104 0
-21 -28 -35 -42 -49 -56 -63 -70 -77 -84 -91 -98 -105 0
-22 -29 -36 -43 -50 -57 -64 -71 -78 -85 -92 -99 -106 0
-23 -30 -37 -44 -51 -58 -65 -72 -79 -86 -93 -100 -107 0
-24 -31 -38 -45 -52 -59 -66 -73 -80 -87 -94 -101 -108 0
-25 -32 -39 -46 -53 -60 -67 -74 -81 -88 -95 -102 -109 0
-26 -33 -40 -47 -54 -61 -68 -75 -82 -89 -96 -103 -110 0
-27 -34 -41 -48 -55 -62 -69 -76 -83 -90 -97 -104 -111 0
-28 -35 -42 -49 -56 -63 -70 -77 -84 -91 -98 -105 -112 0
-29 -36 -43 -50 -57 -64 -71 -78 -85 -92 -99 -106 -113 0
-30 -37 -44 -51 -58 -65 -72 -79 -86 -93 -100 -107 -114 0
-31 -38 -45 -52 -59 -66 -73 -80 -87 -94 -101 -108 -115 0
-32 -39 -46 -53 -60 -67 -74 -81 -88 -95 -102 -109 -116 0
-33 -40 -47 -54 -61 -68 -75 -82 -89 -96 -103 -110 -117 0
-34 -41 -48 -55 -62 -69 -76 -83 -90 -97 -104 -111 -118 0
-35 -42 -49 -56 -63 -70 -77 -84 -91 -98 -105 -112 -119 0
-36 -43 -50 -57 -64 -71 -78 -85 -92 -99 -106 -113 -120 0
-37 -44 -51 -58 -65 -72 -79 -86 -93 -100 -107 -114 -121 0
-38 -45 -52 -59 -66 -73 -80 -87 -94 -101 -108 -115 -122 0
-39 -46 -53 -60 -67 -74 -81 -88 -95 -102 -109 -116 -123 0
-40 -47 -54 -61 -68 -75 -82 -89 -96 -103 -110 -117 -124 0
-41 -48 -55 -62 -69 -76 -83 -90 -97 -104 -111 -118 -125 0
-42 -49 -56 -63 -70 -77 -84 -91 -98 -105 -112 -119 -126 0
-43 -50 -57 -64 -71 -78 -85 -92 -99 -106 -113 -120 -127 0
-44 -51 -58 -65 -72 -79 -86 -93 -100 -107 -114 -121 -128 0
-45 -52 -59 -66 -73 -80 -87 -94 -101 -108 -115 -122 -129 0
-46 -53 -60 -67 -74 -81 -88 -95 -102 -109 -116 -123 -130 0
-47 -54 -61 -68 -75 -82 -89 -96 -103 -110 -117 -124 -131 0
-48 -55 -62 -69 -76 -83 -90 -97 -104 -111 -118 -125 -132 0
-49 -56 -63 -70 -77 -84 -91 -98 -105 -112 -119 -126 -133 0
-50 -57 -64 -71 -78 -85 -92 -99 -106 -113 -120 -127 -134 0
-51 -58 -65 -72 -79 -86 -93 -100 -107 -114 -121 -128 -135 0
-52 -59 -66 -73 -80 -87 -94 -101 -108 -115 -122 -129 -136 0
-53 -60 -67 -74 -81 -88 -95 -102 -109 -116 -123 -130 -137 0
-54 -61 -68 -75 -82 -89 -96 -103 -110 -117 -124 -131 -138 0
-55 -62 -69 -76 -83 -90 -97 -104 -111 -118 -125 -132 -139 0
-56 -63 -70 -77 -84 -91 -98 -105 -112 -119 -126 -133 -140 0
-57 -64 -71 -78 -85 -92 -99 -106 -113 -120 -127 -134 -141 0
-58 -65 -72 -79 -86 -93 -100 -107 -114 -121 -128 -135 -142 0
-59 -66 -73 -80 -87 -94 -101 -108 -115 -122 -129 -136 -143 0
-60 -67 -74 -81 -88 -95 -102 -109 -116 -123 -130 -137 -144 0
-61 -68 -75 -82 -89 -96 -103 -110 -117 -124 -131 -138 -145 0
-62 -69 -76 -83 -90 -97 -104 -111 -118 -125 -132 -139 -146 0
-63 -70 -77 -84 -91 -98 -105 -112 -119 -126 -133 -140 -147 0
-64 -71 -78 -85 -92 -99 -106 -113 -120 -127 -134 -141 -148 0
-65 -72 -79 -86 -93 -100 -107 -114 -121 -128 -135 -142 -149 0
-66 -73 -80 -87 -94 -101 -108 -115 -122 -129 -136 -143 -150 0
-67 -74 -81 -88 -95 -102 -109 -116 -123 -130 -137 -144 -151 0
-68 -75 -82 -89 -96 -103 -110 -117 -124 -131 -138 -145 -152 0
-69 -76 -83 -90 -97 -104 -111 -118 -125 -132 -139 -146 -153 0
-70 -77 -84 -91 -98 -105 -112 -119 -126 -133 -140 -147 -154 0
-71 -78 -85 -92 -99 -106 -113 -120 -127 -134 -141 -148 -155 0
-72 -79 -86 -93 -100 -107 -114 -121 -128 -135 -142 -149 -156 0
-73 -80 -87 -94 -101 -108 -115 -122 -129 -136 -143 -150 -157 0
-74 -81 -88 -95 -102 -109 -116 -123 -130 -137 -144 -151 -158 0
-75 -82 -89 -96 -103 -110 -117 -124 -131 -138 -145 -152 -159 0
-76 -83 -90 -97 -104 -111 -118 -125 -132 -139 -146 -153 -160 0
-1 -9 -17 -25 -33 -41 -49 -57 -65 -73 -81 -89 -97 0
-2 -10 -18 -26 -34 -42 -50 -58 -66 -74 -82 -90 -98 0
-3 -11 -19 -27 -35 -43 -51 -59 -67 -75 -83 -91 -99 0
-4 -12 -20 -28 -36 -44 -52 -60 -68 -76 -84 -92 -100 0
-5 -13 -21 -29 -37 -45 -53 -61 -69 -77 -85 -93 -101 0
-6 -14 -22 -30 -38 -46 -54 -62 -70 -78 -86 -94 -102 0
-7 -15 -23 -31 -39 -47 -55 -63 -71 -79 -87 -95 -103 0
-8 -16 -24 -32 -40 -48 -56 -64 -72 -80 -88 -96 -104 0
-9 -17 -25 -33 -41 -49 -57 -65 -73 -81 -89 -97 -105 0
-10 -18 -26 -34 -42 -50 -58 -66 -74 -82 -90 -98 -106 0
-11 -19 -27 -35 -43 -51 -59 -67 -75 -83 -91 -99 -107 0
-12 -20 -28 -36 -44 -52 -60 -68 -76 -84 -92 -100 -108 0
-13 -21 -29 -37 -45 -53 -61 -69 -77 -85 -93 -101 -109 0
-14 -22 -30 -38 -46 -54 -62 -70 -78 -86 -94 -102 -110 0
-15 -23 -31 -39 -47 -55 -63 -71 -79 -87 -95 -103 -111 0
-16 -24 -32 -40 -48 -56 -64 -72 -80 -88 -96 -104 -112 0
-17 -25 -33 -41 -49 -57 -65 -73 -81 -89 -97 -105 -113 0
-18 -26 -34 -42 -50 -58 -66 -74 -82 -90 -98 -106 -114 0
-19 -27 -35 -43 -51 -59 -67 -75 -83 -91 -99 -107 -115 0
-20 -28 -36 -44 -52 -60 -68 -76 -84 -92 -100 -108 -116 0
-21 -29 -37 -45 -53 -61 -69 -77 -85 -93 -101 -109 -117 0
-22 -30 -38 -46 -54 -62 -70 -78 -86 -94 -102 -110 -118 0
-23 -31 -39 -47 -55 -63 -71 -79 -87 -95 -103 -111 -119 0
-24 -32 -40 -48 -56 -64 -72 -80 -88 -96 -104 -112 -120 0
-25 -33 -41 -49 -57 -65 -73 -81 -89 -97 -105 -113 -121 0
-26 -34 -42 -50 -58 -66 -74 -82 -90 -98 -106 -114 -122 0
-27 -35 -43 -51 -59 -67 -75 -83 -91 -99 -107 -115 -123 0
-28 -36 -44 -52 -60 -68 -76 -84 -92 -100 -108 -116 -124 0
-29 -37 -45 -53 -61 -69 -77 -85 -93 -101 -109 -117 -125 0
-30 -38 -46 -54 -62 -70 -78 -86 -94 -102 -110 -118 -126 0
-31 -39 -47 -55 -63 -71 -79 -87 -95 -103 -111 -119 -127 0
-32 -40 -48 -56 -64 -72 -80 -88 -96 -104 -112 -120 -128 0
-33 -41 -49 -57 -65 -73 -81 -89 -97 -105 -113 -121 -129 0
-34 -42 -50 -58 -66 -74 -82 -90 -98 -106 -114 -122 -130 0
-35 -43 -51 -59 -67 -75 -83 -91 -99 -107 -115 -123 -131 0
-36 -44 -52 -60 -68 -76 -84 -92 -100 -108 -116 -124 -132 0
-37 -45 -53 -61 -69 -77 -85 -93 -101 -109 -117 -125 -133 0
-38 -46 -54 -62 -70 -78 -86 -94 -102 -110 -118 -126 -134 0
-39 -47 -55 -63 -71 -79 -87 -95 -103 -111 -119 -127 -135 0
-40 -48 -56 -64 -72 -80 -88 -96 -104 -112 -120 -128 -136 0
-41 -49 -57 -65 -73 -81 -89 -97 -105 -113 -121 -129 -137 0
-42 -50 -58 -66 -74 -82 -90 -98 -106 -114 -122 -130 -138 0
-43 -51 -59 -67 -75 -83 -91 -99 -107 -115 -123 -131 -139 0
-44 -52 -60 -68 -76 -84 -92 -100 -108 -116 -124 -132 -140 0
-45 -53 -61 -69 -77 -85 -93 -101 -109 -117 -125 -133 -141 0
-46 -54 -62 -70 -78 -86 -94 -102 -110 -118 -126 -134 -142 0
-47 -55 -63 -71 -79 -87 -95 -103 -111 -119 -127 -135 -143 0
-48 -56 -64 -72 -80 -88 -96 -104 -112 -120 -128 -136 -144 0
-49 -57 -65 -73 -81 -89 -97 -105 -113 -121 -129 -137 -145 0
-50 -58 -66 -74 -82 -90 -98 -106 -114 -122 -130 -138 -146 0
-51 -59 -67 -75 -83 -91 -99 -107 -115 -123 -131 -139 -147 0
-52 -60 -68 -76 -84 -92 -100 -108 -116 -124 -132 -140 -148 0
-53 -61 -69 -77 -85 -93 -101 -109 -117 -125 -133 -141 -149 0
-54 -62 -70 -78 -86 -94 -102 -110 -118 -126 -134 -142 -150 0
-55 -63 -71 -79 -87 -95 -103 -111 -119 -127 -135 -143 -151 0
-56 -64 -72 -80 -88 -96 -104 -112 -120 -128 -136 -144 -152 0
-57 -65 -73 -81 -89 -97 -105 -113 -121 -129 -137 -145 -153 0
-58 -66 -74 -82 -90 -98 -106 -114 -122 -130 -138 -146 -154 0
-59 -67 -75 -83 -91 -99 -107 -115 -123 -131 -139 -147 -155 0
-60 -68 -76 -84 -92 -100 -108 -116 -124 -132 -140 -148 -156 0
-61 -69 -77 -85 -93 -101 -109 -117 -125 -133 -141 -149 -157 0
-62 -70 -78 -86 -94 -102 -110 -118 -126 -134 -142 -150 -158 0
-63 -71 -79 -87 -95 -103 -111 -119 -127 -135 -143 -151 -159 0
-64 -72 -80 -88 -96 -104 -112 -120 -128 -136 -144 -152 -160 0
-1 -10 -19 -28 -37 -46 -55 -64 -73 -82 -91 -100 -109 0
-2 -11 -20 -29 -38 -47 -56 -65 -74 -83 -92 -101 -110 0
-3 -12 -21 -30 -39 -48 -57 -66 -75 -84 -93 -102 -111 0
-4 -13 -22 -31 -40 -49 -58 -67 -76 -85 -94 -103 -112 0
-5 -14 -23 -32 -41 -50 -59 -68 -77 -86 -95 -104 -113 0
-6 -15 -24 -33 -42 -51 -60 -69 -78 -87 -96 -105 -114 0
-7 -16 -25 -34 -43 -52 -61 -70 -79 -88 -97 -106 -115 0
-8 -17 -26 -35 -44 -53 -62 -71 -80 -89 -98 -107 -116 0
-9 -18 -27 -36 -45 -54 -63 -72 -81 -90 -99 -108 -117 0
-10 -19 -28 -37 -46 -55 -64 -73 -82 -91 -100 -109 -118 0
-11 -20 -29 -38 -47 -56 -65 -74 -83 -92 -101 -110 -119 0
-12 -21 -30 -39 -48 -57 -66 -75 -84 -93 -102 -111 -120 0
-13 -22 -31 -40 -49 -58 -67 -76 -85 -94 -103 -112 -121 0
-14 -23 -32 -41 -50 -59 -68 -77 -86 -95 -104 -113 -122 0
-15 -24 -33 -42 -51 -60 -69 -78 -87 -96 -105 -114 -123 0
-16 -25 -34 -43 -52 -61 -70 -79 -88 -97 -106 -115 -124 0
-17 -26 -35 -44 -53 -62 -71 -80 -89 -98 -107 -116 -125 0
-18 -27 -36 -45 -54 -63 -72 -81 -90 -99 -108 -117 -126 0
-19 -28 -37 -46 -55 -64 -73 -82 -91 -100 -109 -118 -127 0
-20 -29 -38 -47 -56 -65 -74 -83 -92 -101 -110 -119 -128 0
-21 -30 -39 -48 -57 -66 -75 -84 -93 -102 -111 -120 -129 0
-22 -31 -40 -49 -58 -67 -76 -85 -94 -103 -112 -121 -130 0
-23 -32 -41 -50 -59 -68 -77 -86 -95 -104 -113 -122 -131 0
-24 -33 -42 -51 -60 -69 -78 -87 -96 -105 -114 -123 -132 0
-25 -34 -43 -52 -61 -70 -79 -88 -97 -106 -115 -124 -133 0
-26 -35 -44 -53 -62 -71 -80 -89 -98 -107 -116 -125 -134 0
-27 -36 -45 -54 -63 -72 -81 -90 -99 -108 -117 -126 -135 0
-28 -37 -46 -55 -64 -73 -82 -91 -100 -109 -118 -127 -136 0
-29 -38 -47 -56 -65 -74 -83 -92 -101 -110 -119 -128 -137 0
-30 -39 -48 -57 -66 -75 -84 -93 -102 -111 -120 -129 -138 0
-31 -40 -49 -58 -67 -76 -85 -94 -103 -112 -121 -130 -139 0
-32 -41 -50 -59 -68 -77 -86 -95 -104 -113 -122 -131 -140 0
-33 -42 -51 -60 -69 -78 -87 -96 -105 -114 -123 -132 -141 0
-34 -43 -52 -61 -70 -79 -88 -97 -106 -115 -124 -133 -142 0
-35 -44 -53 -62 -71 -80 -89 -98 -107 -116 -125 -134 -143 0
-36 -45 -54 -63 -72 -81 -90 -99 -108 -117 -126 -135 -144 0
-37 -46 -55 -64 -73 -82 -91 -100 -109 -118 -127 -136 -145 0
-38 -47 -56 -65 -74 -83 -92 -101 -110 -119 -128 -137 -146 0
-39 -48 -57 -66 -75 -84 -93 -102 -111 -120 -129 -138 -147 0
-40 -49 -58 -67 -76 -85 -94 -103 -112 -121 -130 -139 -148 0
-41 -50 -59 -68 -77 -86 -95 -104 -113 -122 -131 -140 -149 0
-42 -51 -60 -69 -78 -87 -96 -105 -114 -123 -132 -141 -150 0
-43 -52 -61 -70 -79 -88 -97 -106 -115 -124 -133 -142 -151 0
-44 -53 -62 -71 -80 -89 -98 -107 -116 -125 -134 -143 -152 0
-45 -54 -63 -72 -81 -90 -99 -108 -117 -126 -135 -144 -153 0
-46 -55 -64 -73 -82 -91 -100 -109 -118 -127 -136 -145 -154 0
-47 -56 -65 -74 -83 -92 -101 -110 -119 -128 -137 -146 -155 0
-48 -57 -66 -75 -84 -93 -102 -111 -120 -129 -138 -147 -156 0
-49 -58 -67 -76 -85 -94 -103 -112 -121 -130 -139 -148 -157 0
-50 -59 -68 -77 -86 -95 -104 -113 -122 -131 -140 -149 -158 0
-51 -60 -69 -78 -87 -96 -105 -114 -123 -132 -141 -150 -159 0
-52 -61 -70 -79 -88 -97 -106 -115 -124 -133 -142 -151 -160 0
-1 -11 -21 -31 -41 -51 -61 -71 -81 -91 -101 -111 -121 0
-2 -12 -22 -32 -42 -52 -62 -72 -82 -92 -102 -112 -122 0
-3 -13 -23 -33 -43 -53 -63 -73 -83 -93 -103 -113 -123 0
-4 -14 -24 -34 -44 -54 -64 -74 -84 -94 -104 -114 -124 0
-5 -15 -25 -35 -45 -55 -65 -75 -85 -95 -105 -115 -125 0
-6 -16 -26 -36 -46 -56 -66 -76 -86 -96 -106 -116 -126 0
-7 -17 -27 -37 -47 -57 -67 -77 -87 -97 -107 -117 -127 0
-8 -18 -28 -38 -48 -58 -68 -78 -88 -98 -108 -118 -128 0
-9 -19 -29 -39 -49 -59 -69 -79 -89 -99 -109 -119 -129 0
-10 -20 -30 -40 -50 -60 -70 -80 -90 -100 -110 -120 -130 0
-11 -21 -31 -41 -51 -61 -71 -81 -91 -101 -111 -121 -131 0
-12 -22 -32 -42 -52 -62 -72 -82 -92 -102 -112 -122 -132 0
-13 -23 -33 -43 -53 -63 -73 -83 -93 -103 -113 -123 -133 0
-14 -24 -34 -44 -54 -64 -74 -84 -94 -104 -114 -124 -134 0
-15 -25 -35 -45 -55 -65 -75 -85 -95 -105 -115 -125 -135 0
-16 -26 -36 -46 -56 -66 -76 -86 -96 -106 -116 -126 -136 0
-17 -27 -37 -47 -57 -67 -77 -87 -97 -107 -117 -127 -137 0
-18 -28 -38 -48 -58 -68 -78 -88 -98 -108 -118 -128 -138 0
-19 -29 -39 -49 -59 -69 -79 -89 -99 -109 -119 -129 -139 0
-20 -30 -40 -50 -60 -70 -80 -90 -100 -110 -120 -130 -140 0
-21 -31 -41 -51 -61 -71 -81 -91 -101 -111 -121 -131 -141 0
-22 -32 -42 -52 -62 -72 -82 -92 -102 -112 -122 -132 -142 0
-23 -33 -43 -53 -63 -73 -83 -93 -103 -113 -123 -133 -143 0
-24 -34 -44 -54 -64 -74 -84 -94 -104 -114 -124 -134 -144 0
-25 -35 -45 -55 -65 -75 -85 -95 -105 -115 -125 -135 -145 0
-26 -36 -46 -56 -66 -76 -86 -96 -106 -116 -126 -136 -146 0
-27 -37 -47 -57 -67 -77 -87 -97 -107 -117 -127 -137 -147 0
-28 -38 -48 -58 -68 -78 -88 -98 -108 -118 -128 -138 -148 0
-29 -39 -49 -59 -69 -79 -89 -99 -109 -119 -129 -139 -149 0
-30 -40 -50 -60 -70 -80 -90 -100 -110 -120 -130 -140 -150 0
-31 -41 -51 -61 -71 -81 -91 -101 -111 -121 -131 -141 -151 0
-32 -42 -52 -62 -72 -82 -92 -102 -112 -122 -132 -142 -152 0
-33 -43 -53 -63 -73 -83 -93 -103 -113 -123 -133 -143 -153 0
-34 -44 -54 -64 -74 -84 -94 -104 -114 -124 -134 -144 -154 0
-35 -45 -55 -65 -75 -85 -95 -105 -115 -125 -135 -145 -155 0
-36 -46 -56 -66 -76 -86 -96 -106 -116 -126 -136 -146 -156 0
-37 -47 -57 -67 -77 -87 -97 -107 -117 -127 -137 -147 -157 0
-38 -48 -58 -68 -78 -88 -98 -108 -118 -128 -138 -148 -158 0
-39 -49 -59 -69 -79 -89 -99 -109 -119 -129 -139 -149 -159 0
-40 -50 -60 -70 -80 -90 -100 -110 -120 -130 -140 -150 -160 0
-1 -12 -23 -34 -45 -56 -67 -78 -89 -100 -111 -122 -133 0
-2 -13 -24 -35 -46 -57 -68 -79 -90 -101 -112 -123 -134 0
-3 -14 -25 -36 -47 -58 -69 -80 -91 -102 -113 -124 -135 0
-4 -15 -26 -37 -48 -59 -70 -81 -92 -103 -114 -125 -136 0
-5 -16 -27 -38 -49 -60 -71 -82 -93 -104 -115 -126 -137 0
-6 -17 -28 -39 -50 -61 -72 -83 -94 -105 -116 -127 -138 0
-7 -18 -29 -40 -51 -62 -73 -84 -95 -106 -117 -128 -139 0
-8 -19 -30 -41 -52 -63 -74 -85 -96 -107 -118 -129 -140 0
-9 -20 -31 -42 -53 -64 -75 -86 -97 -108 -119 -130 -141 0
-10 -21 -32 -43 -54 -65 -76 -87 -98 -109 -120 -131 -142 0
-11 -22 -33 -44 -55 -66 -77 -88 -99 -110 -121 -132 -143 0
-12 -23 -34 -45 -56 -67 -78 -89 -100 -111 -122 -133 -144 0
-13 -24 -35 -46 -57 -68 -79 -90 -101 -112 -123 -134 -145 0
-14 -25 -36 -47 -58 -69 -80 -91 -102 -113 -124 -135 -146 0
-15 -26 -37 -48 -59 -70 -81 -92 -103 -114 -125 -136 -147 0
-16 -27 -38 -49 -60 -71 -82 -93 -104 -115 -126 -137 -148 0
-17 -28 -39 -50 -61 -72 -83 -94 -105 -116 -127 -138 -149 0
-18 -29 -40 -51 -62 -73 -84 -95 -106 -117 -128 -139 -150 0
-19 -30 -41 -52 -63 -74 -85 -96 -107 -118 -129 -140 -151 0
-20 -31 -42 -53 -64 -75 -86 -97 -108 -119 -130 -141 -152 0
-21 -32 -43 -54 -65 -76 -87 -98 -109 -120 -131 -142 -153 0
-22 -33 -44 -55 -66 -77 -88 -99 -110 -121 -132 -143 -154 0
-23 -34 -45 -56 -67 -78 -89 -100 -111 -122 -133 -144 -155 0
-24 -35 -46 -57 -68 -79 -90 -101 -112 -123 -134 -145 -156 0
-25 -36 -47 -58 -69 -80 -91 -102 -113 -124 -135 -146 -157 0
-26 -37 -48 -59 -70 -81 -92 -103 -114 -125 -136 -147 -158 0
-27 -38 -49 -60 -71 -82 -93 -104 -115 -126 -137 -148 -159 0
-28 -39 -50 -61 -72 -83 -94 -105 -116 -127 -138 -149 -160 0
-1 -13 -25 -37 -49 -61 -73 -85 -97 -109 -121 -133 -145 0
-2 -14 -26 -38 -50 -62 -74 -86 -98 -110 -122 -134 -146 0
-3 -15 -27 -39 -51 -63 -75 -87 -99 -111 -123 -135 -147 0
-4 -16 -28 -40 -52 -64 -76 -88 -100 -112 -124 -136 -148 0
-5 -17 -29 -41 -53 -65 -77 -89 -101 -113 -125 -137 -149 0
-6 -18 -30 -42 -54 -66 -78 -90 -102 -114 -126 -138 -150 0
-7 -19 -31 -43 -55 -67 -79 -91 -103 -115 -127 -139 -151 0
-8 -20 -32 -44 -56 -68 -80 -92 -104 -116 -128 -140 -152 0
-9 -21 -33 -45 -57 -69 -81 -93 -105 -117 -129 -141 -153 0
-10 -22 -34 -46 -58 -70 -82 -94 -106 -118 -130 -142 -154 0
-11 -23 -35 -47 -59 -71 -83 -95 -107 -119 -131 -143 -155 0
-12 -24 -36 -48 -60 -72 -84 -96 -108 -120 -132 -144 -156 0
-13 -25 -37 -49 -61 -73 -85 -97 -109 -121 -133 -145 -157 0
-14 -26 -38 -50 -62 -74 -86 -98 -110 -122 -134 -146 -158 0
-15 -27 -39 -51 -63 -75 -87 -99 -111 -123 -135 -147 -159 0
-16 -28 -40 -52 -64 -76 -88 -100 -112 -124 -136 -148 -160 0
-1 -14 -27 -40 -53 -66 -79 -92 -105 -118 -131 -144 -157 0
-2 -15 -28 -41 -54 -67 -80 -93 -106 -119 -132 -145 -158 0
-3 -16 -29 -42 -55 -68 -81 -94 -107 -120 -133 -146 -159 0
-4 -17 -30 -43 -56 -69 -82 -95 -108 -121 -134 -147 -160 0
