NAME: clustered_100_s2
TYPE: TSP
DIMENSION: 100
EDGE_WEIGHT_TYPE: EXPLICIT
EDGE_WEIGHT_FORMAT: UPPER_ROW
EDGE_WEIGHT_SECTION
42 32 20 25 17 25 21 16 29 29 33 26 16 29 35 28 33 21 43 6028 6032 6016 6035 6036 6034 6053 6025 6035 6028 6033 6007 6042 6044 6025 6025 6028 6035 6025 6038 2881 2894 2893 2893 2884 2891 2892 2885 2876 2861 2889 2897 2895 2904 2887 2866 2885 2884 2877 2892 5411 5426 5436 5430 5445 5428 5418 5422 5411 5420 5425 5412 5415 5425 5429 5431 5410 5419 5432 5425 3569 3559 3573 3566 3577 3557 3567 3582 3565 3547 3576 3560 3587 3556 3550 3562 3559 3571 3546 3580
22 23 17 29 18 22 26 14 16 28 28 44 14 8 18 20 33 17 5995 5999 5983 6002 6003 6001 6021 5992 6003 5995 6000 5975 6009 6011 5992 5992 5995 6002 5992 6005 2914 2927 2926 2926 2917 2924 2925 2918 2909 2894 2922 2930 2928 2937 2920 2900 2918 2917 2910 2925 5382 5397 5408 5401 5417 5399 5389 5393 5382 5391 5396 5383 5387 5396 5400 5402 5381 5390 5403 5396 3531 3521 3535 3529 3539 3519 3529 3544 3527 3510 3538 3522 3549 3518 3512 3524 3522 3533 3508 3542
15 17 16 12 16 17 13 7 7 34 27 13 14 7 2 14 12 6016 6021 6005 6024 6024 6023 6042 6013 6024 6016 6021 5996 6030 6033 6013 6014 6016 6023 6014 6027 2913 2926 2924 2925 2915 2923 2923 2917 2908 2892 2921 2929 2927 2936 2919 2898 2917 2916 2909 2924 5403 5418 5429 5422 5438 5421 5410 5415 5404 5412 5417 5405 5408 5417 5422 5424 5403 5412 5425 5417 3537 3526 3541 3534 3545 3525 3535 3550 3533 3515 3544 3528 3555 3524 3518 3530 3527 3539 3514 3547
7 7 5 3 4 9 10 19 21 22 9 15 8 15 14 24 6015 6019 6003 6022 6023 6021 6040 6012 6023 6015 6020 5995 6029 6031 6012 6012 6015 6022 6012 6025 2899 2912 2911 2911 2901 2909 2910 2903 2894 2879 2907 2915 2913 2922 2905 2884 2903 2902 2895 2910 5400 5415 5426 5419 5435 5418 5407 5411 5401 5409 5414 5402 5405 5414 5419 5421 5400 5408 5421 5414 3550 3539 3554 3547 3558 3537 3548 3562 3545 3528 3556 3540 3568 3537 3530 3542 3540 3552 3526 3560
14 6 5 10 5 10 23 17 30 5 10 10 16 21 22 6008 6012 5996 6015 6015 6014 6033 6005 6015 6008 6012 5987 6021 6024 6004 6005 6007 6015 6005 6018 2901 2913 2912 2912 2903 2910 2911 2905 2895 2880 2909 2916 2914 2924 2906 2886 2904 2903 2896 2911 5393 5408 5419 5412 5427 5410 5400 5404 5393 5402 5407 5394 5398 5407 5411 5413 5392 5401 5414 5407 3547 3536 3551 3544 3555 3534 3545 3559 3542 3525 3553 3537 3564 3533 3527 3539 3537 3549 3523 3557
10 9 5 15 14 17 25 16 15 21 12 17 9 27 6022 6026 6010 6029 6029 6028 6047 6018 6029 6022 6026 6001 6035 6038 6018 6019 6021 6028 6019 6032 2898 2910 2909 2909 2900 2907 2908 2901 2892 2877 2905 2913 2911 2921 2903 2883 2901 2900 2893 2908 5407 5421 5432 5425 5441 5424 5413 5418 5407 5416 5420 5408 5411 5421 5425 5427 5406 5415 5428 5420 3553 3542 3557 3550 3561 3540 3551 3565 3548 3531 3559 3543 3571 3540 3533 3545 3543 3555 3529 3563
5 9 5 5 17 22 26 4 10 5 12 16 19 6012 6016 6000 6019 6020 6018 6037 6009 6019 6012 6017 5992 6026 6028 6009 6009 6012 6019 6009 6022 2904 2916 2915 2915 2906 2913 2914 2907 2898 2883 2911 2919 2917 2926 2909 2889 2907 2906 2899 2914 5398 5412 5423 5416 5432 5415 5404 5409 5398 5407 5411 5399 5402 5412 5416 5418 5397 5406 5419 5411 3545 3534 3549 3542 3553 3533 3543 3558 3541 3523 3552 3536 3563 3532 3526 3538 3535 3547 3522 3555
5 8 10 21 18 24 8 14 10 16 17 24 6013 6017 6001 6020 6020 6019 6038 6010 6020 6013 6017 5992 6026 6029 6009 6010 6012 6020 6010 6023 2898 2911 2910 2910 2901 2908 2909 2902 2893 2878 2906 2914 2912 2921 2904 2884 2902 2901 2894 2909 5398 5413 5423 5417 5432 5415 5404 5409 5398 5407 5411 5399 5402 5412 5416 5418 5397 5406 5419 5411 3550 3539 3554 3547 3558 3538 3548 3563 3546 3528 3557 3541 3568 3537 3531 3543 3540 3552 3527 3560
13 13 20 21 20 12 19 12 18 13 27 6018 6022 6006 6025 6025 6024 6043 6015 6025 6018 6022 5997 6031 6034 6014 6015 6017 6024 6015 6028 2896 2909 2907 2907 2898 2905 2906 2900 2890 2875 2904 2912 2910 2919 2902 2881 2899 2899 2892 2907 5402 5417 5428 5421 5437 5420 5409 5414 5403 5411 5416 5404 5407 5416 5421 5423 5402 5411 5424 5416 3553 3543 3557 3550 3561 3541 3551 3566 3549 3531 3560 3544 3571 3540 3534 3546 3543 3555 3530 3564
6 19 22 31 1 6 6 12 21 17 6007 6012 5996 6014 6015 6014 6033 6004 6015 6007 6012 5987 6021 6024 6004 6005 6007 6014 6005 6017 2906 2919 2917 2917 2908 2915 2916 2910 2900 2885 2914 2922 2920 2929 2912 2891 2909 2908 2901 2916 5393 5408 5419 5412 5428 5411 5400 5404 5394 5402 5407 5395 5398 5407 5412 5414 5393 5401 5414 5407 3542 3531 3546 3539 3550 3529 3540 3555 3538 3520 3549 3532 3560 3529 3522 3534 3532 3544 3518 3552
14 27 28 6 8 2 7 17 14 6011 6016 6000 6019 6019 6018 6037 6008 6019 6011 6016 5991 6025 6028 6008 6009 6011 6018 6009 6022 2909 2921 2920 2920 2911 2918 2919 2912 2903 2888 2917 2924 2922 2932 2914 2894 2912 2911 2904 2919 5398 5413 5423 5417 5432 5415 5405 5409 5398 5407 5411 5399 5402 5412 5416 5418 5397 5406 5419 5412 3540 3529 3544 3537 3548 3528 3538 3553 3536 3518 3547 3531 3558 3527 3521 3533 3530 3542 3517 3550
39 24 20 21 13 8 12 16 6023 6027 6011 6030 6030 6029 6048 6020 6030 6023 6028 6002 6036 6039 6019 6020 6022 6030 6020 6033 2914 2927 2925 2926 2916 2923 2924 2918 2909 2893 2922 2930 2928 2937 2920 2899 2918 2917 2910 2925 5410 5425 5436 5429 5445 5428 5417 5421 5411 5419 5424 5412 5415 5424 5429 5431 5410 5418 5431 5424 3538 3527 3542 3535 3546 3525 3536 3550 3533 3516 3544 3528 3556 3525 3518 3530 3528 3540 3514 3548
38 21 26 27 34 34 39 6002 6006 5990 6009 6010 6008 6027 5999 6009 6002 6007 5981 6016 6018 5999 5999 6002 6009 5999 6012 2886 2899 2898 2898 2889 2896 2897 2890 2881 2866 2894 2902 2900 2909 2892 2872 2890 2889 2882 2897 5385 5400 5411 5404 5420 5402 5392 5396 5385 5394 5399 5387 5390 5399 5403 5406 5384 5393 5406 5399 3559 3548 3563 3556 3567 3546 3557 3572 3555 3537 3566 3549 3577 3546 3539 3551 3549 3561 3536 3569
30 36 26 28 12 38 6037 6041 6025 6044 6045 6043 6063 6034 6045 6037 6042 6017 6051 6053 6034 6034 6037 6044 6034 6047 2892 2905 2904 2904 2894 2902 2903 2896 2887 2872 2900 2908 2906 2915 2898 2877 2896 2895 2888 2903 5422 5437 5447 5441 5456 5439 5429 5433 5422 5431 5436 5423 5426 5436 5440 5442 5421 5430 5443 5436 3561 3551 3565 3558 3569 3549 3559 3574 3557 3539 3568 3552 3579 3548 3542 3554 3551 3563 3538 3572
6 6 13 20 18 6008 6012 5996 6015 6015 6014 6033 6004 6015 6008 6012 5987 6021 6024 6004 6005 6007 6014 6005 6018 2905 2918 2917 2917 2908 2915 2916 2909 2900 2885 2913 2921 2919 2928 2911 2890 2909 2908 2901 2916 5393 5408 5419 5412 5428 5411 5400 5405 5394 5402 5407 5395 5398 5407 5412 5414 5393 5402 5415 5407 3542 3532 3546 3540 3550 3530 3540 3555 3538 3521 3549 3533 3560 3529 3523 3535 3533 3544 3519 3553
10 13 25 14 6003 6008 5991 6010 6011 6010 6029 6000 6011 6003 6008 5983 6017 6020 6000 6001 6003 6010 6001 6013 2911 2924 2922 2922 2913 2920 2921 2915 2905 2890 2919 2927 2925 2934 2917 2896 2914 2913 2907 2921 5390 5405 5416 5409 5424 5407 5397 5401 5390 5399 5404 5391 5395 5404 5408 5410 5389 5398 5411 5404 3536 3526 3540 3534 3544 3524 3534 3549 3532 3514 3543 3527 3554 3523 3517 3529 3527 3538 3513 3547
7 15 15 6013 6017 6001 6020 6021 6019 6038 6010 6021 6013 6018 5993 6027 6029 6010 6010 6013 6020 6010 6023 2908 2920 2919 2919 2910 2917 2918 2911 2902 2887 2915 2923 2921 2931 2913 2893 2911 2910 2903 2918 5399 5414 5425 5418 5434 5417 5406 5410 5400 5408 5413 5401 5404 5413 5418 5420 5399 5407 5420 5413 3541 3531 3545 3539 3549 3529 3539 3554 3537 3520 3548 3532 3559 3528 3522 3534 3532 3544 3518 3552
16 10 6015 6019 6003 6022 6022 6021 6040 6012 6022 6015 6019 5994 6028 6031 6011 6012 6014 6021 6012 6025 2914 2927 2925 2925 2916 2923 2924 2918 2908 2893 2922 2930 2928 2937 2920 2899 2917 2916 2909 2924 5402 5417 5427 5421 5436 5419 5409 5413 5402 5411 5415 5403 5406 5416 5420 5422 5401 5410 5423 5416 3536 3525 3540 3533 3544 3524 3534 3549 3532 3514 3543 3527 3554 3523 3517 3529 3526 3538 3513 3546
26 6028 6032 6016 6035 6036 6034 6053 6025 6035 6028 6033 6008 6042 6044 6025 6025 6028 6035 6025 6038 2902 2915 2914 2914 2904 2912 2913 2906 2897 2882 2910 2918 2916 2925 2908 2887 2906 2905 2898 2913 5414 5429 5439 5433 5448 5431 5421 5425 5414 5423 5427 5415 5418 5428 5432 5434 5413 5422 5435 5428 3550 3539 3554 3547 3558 3537 3548 3563 3546 3528 3557 3540 3568 3537 3530 3542 3540 3552 3526 3560
6008 6012 5996 6015 6015 6014 6033 6005 6015 6008 6012 5987 6021 6024 6004 6005 6007 6014 6005 6018 2923 2935 2934 2934 2925 2932 2933 2926 2917 2902 2931 2938 2936 2946 2928 2908 2926 2925 2918 2933 5396 5411 5422 5415 5431 5413 5403 5407 5396 5405 5410 5397 5401 5410 5414 5416 5395 5404 5417 5410 3526 3516 3530 3524 3534 3514 3524 3539 3522 3504 3533 3517 3544 3513 3507 3519 3517 3528 3503 3537
5 13 29 8 7 30 18 17 11 24 35 20 23 5 23 9 11 17 18 7234 7226 7223 7233 7230 7237 7239 7242 7220 7207 7229 7222 7228 7239 7223 7224 7223 7234 7225 7227 1009 993 1002 1001 992 1006 1000 997 998 986 990 1000 1006 1002 991 997 1011 1019 998 991 5557 5541 5538 5566 5562 5536 5555 5553 5538 5535 5546 5546 5546 5541 5527 5540 5535 5534 5558 5553
16 30 4 5 28 21 18 14 25 40 19 22 10 26 8 11 20 18 7239 7231 7228 7238 7235 7241 7244 7247 7224 7212 7234 7227 7233 7244 7228 7229 7228 7239 7230 7232 1014 997 1006 1005 996 1010 1004 1001 1003 991 994 1004 1011 1006 995 1002 1016 1024 1003 995 5559 5543 5540 5568 5564 5538 5557 5555 5541 5537 5548 5548 5548 5543 5529 5542 5537 5537 5560 5555
39 20 20 43 25 28 21 33 36 32 36 13 30 12 23 24 30 7225 7217 7214 7225 7221 7228 7231 7233 7211 7199 7221 7213 7219 7231 7215 7216 7214 7226 7216 7219 1006 989 999 998 989 1003 996 994 995 983 986 996 1003 998 988 994 1008 1016 995 987 5544 5528 5525 5553 5549 5522 5542 5540 5525 5522 5533 5533 5533 5528 5514 5527 5522 5521 5545 5540
28 26 22 15 13 18 5 28 15 15 26 11 37 20 15 13 7230 7222 7218 7229 7226 7232 7235 7238 7215 7203 7225 7218 7224 7235 7219 7220 7218 7230 7221 7223 993 977 985 985 975 989 984 981 983 970 974 984 990 985 975 981 995 1003 982 975 5579 5562 5560 5588 5584 5557 5577 5575 5560 5557 5568 5568 5568 5563 5549 5562 5557 5556 5579 5575
2 24 20 15 14 23 40 15 18 12 25 12 8 20 15 7241 7233 7230 7240 7237 7244 7246 7249 7227 7214 7236 7229 7235 7246 7230 7231 7230 7241 7232 7234 1014 998 1006 1006 997 1010 1005 1002 1003 991 994 1005 1011 1006 996 1002 1016 1024 1003 996 5563 5547 5544 5572 5568 5542 5561 5559 5545 5541 5552 5552 5552 5547 5533 5546 5541 5541 5564 5559
24 18 13 11 21 38 14 17 10 23 12 6 17 14 7239 7231 7228 7238 7235 7242 7244 7247 7225 7212 7234 7227 7233 7244 7228 7229 7228 7239 7230 7232 1012 995 1004 1003 994 1008 1003 999 1001 989 992 1003 1009 1004 993 1000 1014 1022 1001 993 5563 5547 5544 5572 5568 5542 5561 5559 5545 5541 5552 5552 5552 5547 5533 5546 5541 5541 5564 5559
29 18 26 22 48 12 9 31 29 36 20 28 15 7251 7243 7240 7250 7247 7254 7256 7259 7237 7224 7246 7239 7245 7256 7240 7241 7240 7251 7242 7244 1014 997 1006 1005 996 1010 1005 1002 1004 991 994 1005 1011 1006 995 1002 1016 1024 1003 996 5587 5571 5568 5596 5592 5566 5585 5583 5569 5565 5576 5576 5576 5571 5557 5570 5565 5565 5588 5583
11 7 10 21 17 19 13 5 26 13 1 13 7224 7216 7213 7224 7220 7227 7230 7232 7210 7198 7220 7212 7218 7230 7213 7215 7213 7225 7215 7218 994 977 986 986 976 990 985 982 983 971 974 985 991 986 976 982 996 1004 983 976 5564 5548 5545 5573 5569 5543 5563 5560 5546 5543 5553 5554 5554 5549 5535 5547 5543 5542 5565 5560
8 9 31 6 9 15 13 25 7 10 3 7235 7227 7224 7234 7231 7238 7240 7243 7221 7208 7230 7223 7229 7240 7224 7226 7224 7236 7226 7228 1003 986 995 994 985 999 994 991 992 980 983 994 1000 995 984 991 1005 1013 992 985 5572 5555 5553 5580 5576 5550 5570 5568 5553 5550 5561 5561 5561 5556 5542 5555 5550 5549 5572 5568
13 27 14 17 8 12 20 7 6 11 7230 7222 7218 7229 7226 7232 7235 7238 7215 7203 7225 7218 7224 7235 7219 7220 7218 7230 7221 7223 1001 984 993 992 983 997 991 988 990 978 981 991 998 993 982 989 1003 1011 990 982 5563 5547 5544 5572 5568 5542 5562 5559 5545 5542 5552 5553 5553 5548 5534 5547 5542 5541 5564 5560
26 13 14 21 8 32 15 10 10 7229 7221 7218 7228 7225 7232 7234 7237 7215 7203 7225 7217 7223 7235 7218 7220 7218 7230 7220 7222 995 978 987 986 977 991 986 983 984 972 975 986 992 987 976 983 997 1005 984 977 5574 5558 5555 5583 5579 5553 5572 5570 5556 5552 5563 5563 5564 5559 5544 5557 5552 5552 5575 5570
37 39 30 19 42 34 21 34 7204 7196 7193 7203 7200 7207 7209 7212 7189 7177 7199 7192 7198 7209 7193 7194 7193 7204 7195 7197 974 957 966 966 956 970 965 962 963 951 954 965 971 966 956 962 976 984 963 956 5557 5541 5538 5566 5562 5536 5555 5553 5539 5535 5546 5546 5547 5541 5527 5540 5535 5535 5558 5553
3 20 18 27 9 17 4 7241 7233 7230 7240 7237 7244 7246 7249 7227 7214 7236 7229 7235 7246 7230 7231 7230 7241 7232 7234 1008 991 999 999 990 1004 998 995 997 985 988 998 1005 1000 989 995 1010 1017 996 989 5576 5560 5557 5585 5581 5555 5574 5572 5558 5555 5565 5565 5566 5561 5547 5559 5554 5554 5577 5572
23 20 30 12 19 6 7243 7235 7231 7242 7239 7245 7248 7251 7228 7216 7238 7231 7237 7248 7232 7233 7231 7243 7234 7236 1008 991 1000 999 990 1004 999 996 997 985 988 999 1005 1000 989 996 1010 1018 997 990 5579 5563 5560 5588 5584 5558 5578 5575 5561 5558 5568 5569 5569 5564 5550 5562 5558 5557 5580 5576
19 13 11 13 17 7229 7221 7218 7229 7225 7232 7235 7237 7215 7203 7225 7217 7223 7235 7218 7220 7218 7230 7220 7223 1004 987 996 996 987 1000 995 992 993 981 984 995 1001 996 986 992 1006 1014 993 986 5556 5540 5537 5565 5561 5535 5555 5552 5538 5535 5545 5546 5546 5541 5527 5539 5535 5534 5557 5553
31 17 6 15 7223 7215 7211 7222 7219 7225 7228 7231 7208 7196 7218 7211 7217 7228 7212 7213 7211 7223 7214 7216 990 974 982 982 973 987 981 978 980 967 971 981 988 983 972 978 992 1000 979 972 5568 5551 5549 5576 5572 5546 5566 5564 5549 5546 5557 5557 5557 5552 5538 5551 5546 5545 5568 5564
18 25 26 7237 7229 7226 7236 7233 7240 7242 7245 7223 7210 7232 7225 7231 7242 7226 7227 7226 7237 7228 7230 1015 999 1008 1007 998 1012 1006 1003 1005 992 996 1006 1013 1008 997 1003 1017 1025 1005 997 5552 5535 5532 5560 5556 5530 5550 5548 5533 5530 5540 5541 5541 5536 5522 5535 5530 5529 5552 5548
13 7 7237 7229 7226 7236 7233 7240 7242 7245 7223 7210 7232 7225 7231 7242 7226 7228 7226 7237 7228 7230 1008 991 1000 999 990 1004 998 995 997 984 988 998 1005 1000 989 995 1010 1017 996 989 5567 5551 5548 5576 5572 5546 5565 5563 5549 5546 5556 5556 5557 5552 5538 5550 5545 5545 5568 5563
13 7225 7217 7214 7224 7221 7228 7230 7233 7210 7198 7220 7213 7219 7230 7214 7215 7214 7225 7216 7218 995 978 987 986 977 991 985 982 984 972 975 986 992 987 976 983 997 1005 984 976 5564 5548 5545 5573 5569 5543 5562 5560 5546 5542 5553 5553 5554 5549 5535 5547 5542 5542 5565 5560
7238 7229 7226 7237 7233 7240 7243 7246 7223 7211 7233 7225 7231 7243 7227 7228 7226 7238 7228 7231 1005 988 997 996 987 1001 995 992 994 982 985 996 1002 997 986 992 1007 1015 994 986 5574 5557 5555 5583 5579 5552 5572 5570 5555 5552 5563 5563 5563 5558 5544 5557 5552 5551 5574 5570
23 25 15 7 10 10 8 15 27 14 30 22 25 18 15 17 3 9 19 6338 6356 6358 6354 6369 6351 6348 6352 6345 6356 6357 6344 6343 6351 6359 6357 6337 6338 6357 6357 6414 6402 6416 6412 6422 6400 6412 6426 6408 6391 6420 6404 6431 6400 6392 6405 6403 6414 6391 6424
3 10 16 16 18 28 19 33 9 8 2 14 7 33 10 20 20 4 6329 6347 6348 6345 6359 6341 6338 6342 6335 6347 6348 6335 6333 6341 6350 6348 6328 6328 6348 6347 6425 6413 6426 6423 6433 6410 6422 6437 6419 6401 6430 6414 6441 6410 6403 6416 6413 6424 6402 6434
13 18 19 21 30 19 32 11 6 5 17 7 34 10 23 21 6 6326 6343 6345 6341 6356 6338 6335 6339 6332 6344 6344 6332 6330 6338 6347 6344 6324 6325 6344 6344 6423 6411 6425 6421 6431 6409 6421 6435 6417 6399 6428 6413 6439 6408 6401 6414 6411 6423 6400 6433
10 6 8 18 18 33 4 17 8 11 10 28 11 12 16 7 6337 6354 6356 6352 6367 6349 6346 6350 6343 6355 6355 6343 6341 6349 6358 6355 6335 6336 6355 6355 6424 6413 6426 6423 6433 6410 6422 6437 6419 6401 6430 6414 6441 6410 6403 6416 6413 6424 6402 6434
8 10 14 11 26 7 24 16 21 11 18 10 5 7 12 6334 6352 6354 6350 6364 6346 6343 6347 6340 6352 6353 6340 6338 6346 6355 6353 6333 6333 6353 6352 6416 6404 6418 6414 6424 6401 6414 6428 6410 6392 6421 6405 6432 6401 6394 6407 6404 6416 6393 6425
3 12 18 33 8 23 14 15 14 24 14 7 15 12 6340 6358 6360 6356 6370 6353 6349 6354 6347 6358 6359 6346 6345 6353 6361 6359 6339 6340 6359 6359 6423 6411 6425 6421 6431 6409 6421 6435 6417 6400 6429 6413 6440 6409 6401 6414 6412 6423 6400 6433
11 20 35 11 26 17 15 17 25 17 8 16 15 6343 6361 6362 6359 6373 6355 6352 6356 6349 6361 6362 6349 6347 6355 6364 6362 6342 6342 6362 6361 6424 6412 6426 6422 6433 6410 6422 6436 6418 6401 6430 6414 6441 6410 6402 6415 6413 6424 6401 6434
23 35 19 35 26 26 25 20 24 9 17 24 6346 6364 6366 6362 6377 6359 6356 6360 6353 6364 6365 6352 6351 6359 6367 6365 6345 6346 6365 6365 6419 6407 6421 6417 6427 6405 6417 6431 6413 6395 6424 6409 6435 6404 6397 6410 6407 6419 6396 6429
16 14 24 19 29 12 16 9 15 6 16 6324 6342 6343 6340 6354 6336 6333 6337 6330 6342 6343 6330 6328 6336 6345 6343 6322 6323 6342 6342 6407 6395 6409 6405 6415 6393 6405 6419 6401 6384 6413 6397 6423 6393 6385 6398 6395 6407 6384 6417
29 37 34 44 26 18 24 29 19 31 6312 6330 6332 6328 6342 6325 6321 6326 6318 6330 6331 6318 6316 6325 6333 6331 6311 6312 6331 6330 6392 6380 6393 6390 6400 6377 6389 6404 6386 6368 6397 6381 6408 6377 6370 6383 6380 6391 6369 6401
17 8 15 7 25 7 11 13 5 6333 6351 6352 6349 6363 6345 6342 6346 6339 6351 6352 6339 6337 6345 6354 6352 6331 6332 6352 6351 6421 6409 6423 6419 6429 6407 6419 6433 6415 6397 6426 6410 6437 6406 6399 6412 6409 6421 6398 6431
9 18 13 39 16 28 27 11 6325 6342 6344 6340 6355 6337 6334 6338 6331 6343 6343 6331 6329 6337 6345 6343 6323 6324 6343 6343 6427 6415 6429 6425 6435 6412 6425 6439 6421 6403 6432 6416 6443 6412 6405 6418 6415 6426 6404 6436
12 8 33 10 19 20 3 6331 6349 6350 6347 6361 6343 6340 6344 6337 6349 6350 6337 6335 6343 6352 6350 6330 6330 6350 6349 6426 6414 6428 6424 6434 6412 6424 6438 6420 6402 6431 6415 6442 6411 6404 6417 6414 6426 6403 6436
19 39 21 22 27 14 6342 6360 6362 6358 6372 6354 6351 6356 6348 6360 6361 6348 6346 6355 6363 6361 6341 6342 6361 6360 6436 6424 6438 6434 6444 6422 6434 6448 6430 6412 6441 6426 6452 6421 6414 6427 6424 6436 6413 6446
26 2 16 14 5 6327 6344 6346 6342 6357 6339 6336 6340 6333 6345 6345 6333 6331 6339 6347 6345 6325 6326 6345 6345 6418 6406 6420 6416 6426 6404 6416 6430 6412 6394 6423 6408 6434 6403 6396 6409 6406 6418 6395 6428
24 17 12 29 6330 6347 6349 6345 6360 6342 6339 6343 6336 6348 6348 6336 6334 6342 6351 6348 6328 6329 6348 6348 6399 6387 6401 6397 6408 6385 6397 6411 6393 6376 6405 6389 6416 6385 6377 6390 6388 6399 6376 6409
15 12 7 6326 6344 6346 6342 6356 6339 6335 6340 6332 6344 6345 6332 6331 6339 6347 6345 6325 6326 6345 6344 6416 6404 6418 6414 6424 6401 6414 6428 6410 6392 6421 6405 6432 6401 6394 6407 6404 6416 6393 6426
10 17 6339 6356 6358 6354 6369 6351 6348 6352 6345 6357 6357 6345 6343 6351 6360 6357 6337 6338 6357 6357 6417 6405 6418 6415 6425 6402 6414 6429 6411 6393 6422 6406 6433 6402 6395 6408 6405 6416 6394 6426
17 6329 6347 6349 6345 6359 6342 6338 6343 6335 6347 6348 6335 6334 6342 6350 6348 6328 6329 6348 6347 6409 6397 6411 6407 6417 6395 6407 6421 6403 6385 6414 6399 6425 6395 6387 6400 6397 6409 6386 6419
6330 6348 6350 6346 6361 6343 6340 6344 6337 6349 6349 6337 6335 6343 6351 6349 6329 6330 6349 6349 6423 6411 6425 6421 6431 6409 6421 6435 6417 6399 6428 6413 6439 6408 6401 6414 6411 6423 6400 6433
18 27 19 35 19 10 14 13 24 20 10 5 14 21 21 2 19 21 19 5543 5525 5525 5550 5549 5520 5541 5541 5524 5518 5533 5531 5536 5526 5511 5525 5520 5522 5539 5541
21 13 23 17 9 4 15 13 5 13 14 10 4 11 20 28 13 3 5548 5531 5531 5556 5554 5526 5546 5547 5530 5524 5539 5536 5542 5531 5517 5531 5526 5527 5545 5546
9 11 8 24 21 32 34 25 30 22 14 19 10 27 20 8 24 5568 5550 5550 5575 5574 5545 5566 5566 5549 5543 5558 5556 5561 5550 5536 5550 5545 5547 5564 5566
16 5 15 12 24 26 18 21 14 5 12 4 19 18 3 16 5559 5542 5542 5567 5565 5537 5557 5558 5541 5535 5550 5547 5552 5542 5527 5542 5537 5538 5555 5557
18 29 25 37 35 26 35 30 21 20 14 35 31 13 25 5571 5554 5553 5579 5577 5549 5569 5569 5553 5546 5562 5559 5564 5554 5539 5554 5549 5550 5567 5569
17 16 26 30 22 23 15 8 17 9 19 14 7 20 5561 5543 5543 5569 5567 5538 5559 5559 5543 5536 5551 5549 5554 5544 5529 5543 5538 5540 5557 5559
5 9 15 10 6 7 10 12 15 11 24 16 9 5544 5527 5527 5552 5550 5521 5542 5543 5526 5519 5535 5532 5537 5527 5512 5527 5522 5523 5540 5542
12 15 8 10 10 8 8 11 15 25 13 6 5547 5530 5530 5555 5553 5525 5545 5546 5529 5523 5538 5535 5540 5530 5516 5530 5525 5526 5544 5545
13 13 3 13 19 18 23 15 31 25 13 5535 5518 5518 5543 5541 5513 5533 5534 5517 5511 5526 5523 5528 5518 5504 5518 5513 5514 5532 5533
9 14 22 22 15 24 26 39 26 10 5536 5519 5519 5544 5542 5514 5534 5535 5518 5512 5527 5525 5530 5519 5505 5519 5514 5516 5533 5535
13 17 14 7 15 22 32 17 2 5545 5527 5527 5553 5551 5522 5543 5543 5526 5520 5535 5533 5538 5528 5513 5527 5522 5524 5541 5543
10 16 17 21 12 28 22 13 5538 5520 5520 5546 5544 5515 5536 5536 5519 5513 5528 5526 5531 5521 5506 5520 5515 5517 5534 5536
9 17 16 6 18 17 16 5546 5529 5529 5554 5552 5524 5544 5545 5528 5522 5537 5534 5540 5529 5515 5529 5524 5525 5543 5545
11 7 15 18 7 13 5554 5536 5536 5562 5560 5531 5552 5552 5536 5529 5544 5542 5547 5537 5522 5536 5531 5533 5550 5552
9 22 29 11 6 5551 5534 5534 5559 5557 5529 5549 5550 5533 5527 5542 5539 5544 5534 5520 5534 5529 5530 5548 5549
21 22 2 14 5558 5541 5541 5566 5564 5536 5556 5557 5540 5534 5549 5546 5552 5541 5527 5541 5536 5537 5555 5557
18 22 21 5543 5526 5526 5551 5550 5521 5542 5542 5525 5519 5534 5532 5537 5526 5512 5526 5521 5523 5540 5542
21 31 5560 5542 5542 5568 5566 5537 5558 5558 5542 5535 5551 5548 5553 5543 5528 5542 5537 5539 5556 5558
16 5560 5543 5542 5568 5566 5537 5558 5558 5542 5535 5551 5548 5553 5543 5528 5542 5537 5539 5556 5558
5546 5528 5528 5554 5552 5523 5544 5544 5527 5521 5536 5534 5539 5529 5514 5528 5523 5525 5542 5544
18 21 10 9 23 2 14 18 28 14 13 23 19 33 17 23 23 24 12
16 25 26 5 16 25 7 12 18 6 29 3 15 3 6 15 23 23
30 24 16 20 16 8 26 8 17 15 18 24 12 14 3 37 16
12 30 11 22 27 33 24 20 31 25 40 26 31 33 21 20
31 11 11 25 37 16 21 20 27 41 25 30 27 31 10
21 28 8 10 20 11 31 6 10 6 3 15 27 26
16 17 26 14 11 24 16 31 15 20 22 22 13
21 36 9 22 9 27 38 22 26 20 38 2
18 12 10 22 10 17 4 6 8 30 19
29 15 40 10 9 15 12 24 23 34
17 11 20 30 15 18 12 35 8
28 6 20 7 11 18 20 20
31 39 25 28 18 46 11
15 6 8 18 21 25
16 12 22 32 36
5 12 26 20
12 29 25
38 19
36

EOF
