NAME: clustered_100_s1
TYPE: TSP
DIMENSION: 100
EDGE_WEIGHT_TYPE: EXPLICIT
EDGE_WEIGHT_FORMAT: UPPER_ROW
EDGE_WEIGHT_SECTION
18 21 16 19 16 21 11 15 11 25 31 10 15 18 34 20 9 14 17 2748 2749 2738 2748 2743 2743 2739 2760 2746 2761 2747 2742 2761 2737 2752 2741 2756 2750 2739 2767 4668 4656 4652 4663 4657 4663 4674 4665 4661 4649 4674 4645 4668 4661 4661 4667 4670 4651 4684 4640 7344 7332 7335 7344 7346 7346 7327 7336 7337 7333 7345 7338 7348 7323 7339 7345 7334 7336 7327 7325 3432 3432 3433 3446 3418 3429 3412 3439 3436 3439 3424 3453 3447 3427 3440 3407 3435 3436 3422 3440
14 6 9 18 14 11 18 12 7 43 14 7 20 20 3 25 8 24 2760 2761 2750 2760 2755 2756 2751 2772 2758 2773 2760 2754 2774 2750 2764 2754 2769 2762 2752 2779 4678 4666 4662 4673 4668 4673 4684 4676 4671 4659 4684 4655 4678 4671 4671 4677 4680 4661 4694 4650 7362 7351 7353 7362 7364 7364 7345 7355 7356 7351 7363 7356 7367 7341 7357 7363 7352 7355 7345 7344 3451 3450 3451 3464 3437 3448 3430 3458 3454 3457 3442 3471 3466 3445 3458 3425 3453 3455 3440 3458
9 6 8 1 10 9 10 19 33 11 8 31 15 12 22 8 14 2747 2749 2738 2747 2742 2743 2739 2760 2745 2760 2747 2742 2761 2737 2751 2741 2756 2750 2739 2767 4664 4653 4649 4660 4654 4659 4671 4662 4657 4645 4671 4641 4664 4658 4658 4664 4666 4648 4680 4636 7357 7346 7348 7358 7359 7359 7341 7350 7351 7346 7358 7351 7362 7336 7353 7358 7348 7350 7340 7339 3446 3445 3446 3459 3432 3443 3425 3453 3449 3452 3437 3466 3461 3440 3453 3420 3448 3449 3435 3453
4 12 9 7 13 7 12 38 9 2 22 19 5 21 3 19 2754 2756 2745 2754 2749 2750 2746 2767 2752 2767 2754 2749 2768 2744 2758 2748 2763 2757 2746 2774 4672 4660 4657 4668 4662 4667 4679 4670 4665 4653 4679 4649 4672 4666 4666 4672 4674 4655 4688 4644 7358 7347 7349 7359 7360 7360 7342 7351 7352 7347 7360 7352 7363 7337 7354 7359 7349 7351 7341 7340 3447 3446 3448 3461 3433 3444 3426 3454 3450 3453 3439 3468 3462 3441 3455 3421 3449 3451 3436 3455
10 5 8 11 8 13 37 10 4 27 16 6 23 5 18 2752 2754 2743 2752 2747 2748 2744 2765 2750 2765 2752 2747 2766 2742 2756 2746 2761 2755 2744 2772 4670 4658 4654 4665 4659 4665 4676 4667 4663 4651 4676 4647 4670 4663 4663 4669 4672 4653 4686 4642 7359 7348 7350 7360 7361 7361 7343 7352 7353 7348 7361 7353 7364 7338 7355 7360 7350 7352 7342 7341 3448 3447 3448 3461 3434 3445 3427 3455 3451 3454 3439 3469 3463 3442 3456 3422 3450 3452 3437 3455
8 8 1 8 23 26 6 10 30 22 16 15 9 7 2743 2744 2733 2742 2737 2738 2734 2755 2740 2755 2742 2737 2756 2732 2746 2736 2751 2745 2734 2762 4660 4649 4645 4656 4650 4655 4667 4658 4654 4641 4667 4638 4660 4654 4654 4660 4662 4644 4676 4632 7350 7338 7341 7350 7352 7352 7333 7342 7343 7339 7351 7343 7354 7328 7345 7351 7340 7342 7333 7331 3438 3437 3439 3452 3424 3435 3417 3445 3441 3444 3430 3459 3453 3432 3446 3412 3440 3442 3427 3446
10 9 10 18 33 11 8 31 14 11 22 8 15 2748 2749 2738 2748 2743 2744 2739 2760 2746 2761 2747 2742 2761 2737 2752 2741 2757 2750 2740 2767 4665 4653 4650 4660 4655 4660 4671 4663 4658 4646 4671 4642 4665 4658 4658 4664 4667 4648 4681 4637 7358 7346 7349 7358 7359 7360 7341 7350 7351 7347 7359 7351 7362 7336 7353 7359 7348 7350 7341 7339 3446 3445 3447 3460 3432 3443 3425 3453 3449 3452 3438 3467 3461 3440 3454 3420 3448 3450 3435 3454
8 0 18 32 3 5 22 24 11 15 4 13 2749 2750 2740 2749 2744 2745 2740 2761 2747 2762 2749 2743 2763 2739 2753 2743 2758 2751 2741 2768 4667 4656 4652 4663 4657 4663 4674 4665 4661 4649 4674 4645 4668 4661 4661 4667 4669 4651 4683 4639 7352 7340 7343 7352 7354 7354 7335 7344 7345 7341 7353 7345 7356 7331 7347 7353 7342 7344 7335 7333 3440 3439 3441 3454 3426 3437 3419 3447 3444 3446 3432 3461 3455 3434 3448 3415 3442 3444 3430 3448
8 24 25 6 11 30 23 17 14 10 6 2742 2743 2732 2742 2737 2738 2733 2754 2740 2755 2741 2736 2755 2731 2746 2735 2750 2744 2733 2761 4660 4648 4644 4655 4649 4655 4666 4657 4653 4641 4666 4637 4660 4653 4653 4659 4662 4643 4676 4632 7349 7337 7340 7349 7350 7351 7332 7341 7342 7338 7350 7342 7353 7327 7344 7349 7339 7341 7332 7330 3437 3436 3438 3451 3423 3434 3416 3444 3440 3443 3429 3458 3452 3431 3445 3411 3439 3441 3426 3444
18 32 2 5 23 24 11 15 4 13 2749 2750 2739 2749 2744 2745 2740 2761 2747 2762 2748 2743 2762 2738 2753 2742 2758 2751 2741 2768 4667 4655 4652 4663 4657 4662 4674 4665 4660 4648 4674 4644 4667 4661 4661 4667 4669 4650 4683 4639 7352 7340 7343 7352 7354 7354 7335 7344 7345 7341 7353 7346 7356 7331 7347 7353 7342 7344 7335 7333 3440 3439 3441 3454 3426 3437 3419 3447 3444 3446 3432 3461 3455 3434 3448 3415 3442 3444 3430 3448
49 20 13 23 20 7 32 14 30 2766 2767 2756 2766 2761 2762 2757 2778 2764 2779 2765 2760 2779 2755 2770 2759 2774 2768 2757 2785 4683 4671 4668 4678 4673 4678 4690 4681 4676 4664 4689 4660 4683 4676 4676 4682 4685 4666 4699 4655 7369 7357 7360 7369 7371 7371 7352 7361 7362 7358 7370 7363 7373 7348 7364 7370 7359 7361 7352 7351 3457 3457 3458 3471 3443 3454 3437 3464 3461 3463 3449 3478 3472 3452 3465 3432 3459 3461 3447 3465
29 36 49 46 42 22 35 19 2718 2719 2708 2717 2712 2713 2709 2730 2715 2730 2717 2712 2731 2707 2721 2711 2726 2720 2709 2737 4637 4625 4621 4632 4626 4632 4643 4635 4630 4618 4643 4614 4637 4630 4630 4636 4639 4620 4653 4609 7326 7314 7317 7326 7328 7328 7309 7318 7319 7315 7327 7319 7330 7304 7321 7327 7316 7318 7309 7307 3414 3413 3414 3428 3400 3411 3393 3421 3417 3420 3405 3435 3429 3408 3422 3388 3416 3418 3403 3421
7 24 25 14 13 6 11 2747 2748 2737 2746 2741 2742 2738 2759 2745 2760 2746 2741 2760 2736 2751 2740 2755 2749 2738 2766 4665 4653 4650 4660 4655 4660 4672 4663 4658 4646 4671 4642 4665 4658 4659 4665 4667 4648 4681 4637 7350 7338 7341 7350 7352 7352 7333 7342 7343 7339 7351 7343 7354 7328 7345 7351 7340 7342 7333 7331 3438 3437 3439 3452 3424 3435 3417 3445 3441 3444 3430 3459 3453 3432 3446 3413 3440 3442 3428 3446
23 19 6 20 1 17 2753 2754 2743 2753 2748 2749 2744 2765 2751 2766 2752 2747 2766 2742 2757 2746 2761 2755 2744 2772 4670 4659 4655 4666 4660 4666 4677 4668 4664 4652 4677 4648 4671 4664 4664 4670 4673 4654 4686 4642 7357 7346 7348 7357 7359 7359 7340 7350 7351 7346 7358 7351 7362 7336 7352 7358 7347 7350 7340 7339 3446 3445 3446 3459 3432 3443 3425 3453 3449 3452 3437 3466 3461 3440 3453 3420 3448 3449 3435 3453
40 23 27 23 34 2765 2766 2755 2765 2760 2761 2756 2777 2763 2778 2764 2759 2779 2754 2769 2759 2773 2767 2757 2784 4685 4674 4670 4681 4675 4680 4692 4683 4679 4666 4692 4663 4685 4679 4679 4685 4687 4669 4701 4657 7353 7342 7344 7353 7355 7355 7336 7346 7347 7342 7354 7347 7358 7332 7348 7354 7343 7346 7336 7335 3442 3441 3443 3456 3428 3439 3421 3449 3446 3448 3434 3463 3457 3436 3450 3417 3444 3446 3432 3450
17 37 20 29 2755 2756 2745 2755 2750 2751 2746 2767 2753 2768 2754 2749 2768 2744 2759 2748 2763 2757 2746 2774 4670 4658 4654 4665 4660 4665 4676 4667 4663 4651 4676 4647 4670 4663 4663 4669 4672 4653 4686 4642 7371 7360 7362 7371 7373 7373 7354 7364 7365 7360 7372 7365 7376 7350 7367 7372 7361 7364 7354 7353 3459 3459 3460 3473 3445 3456 3438 3466 3463 3465 3451 3480 3474 3454 3467 3434 3461 3463 3449 3467
26 7 23 2759 2760 2749 2758 2753 2754 2750 2771 2756 2771 2758 2753 2772 2748 2762 2752 2767 2761 2750 2778 4676 4664 4661 4671 4666 4671 4683 4674 4669 4657 4682 4653 4676 4669 4669 4675 4678 4659 4692 4648 7363 7351 7354 7363 7365 7365 7346 7356 7357 7352 7364 7357 7367 7342 7358 7364 7353 7355 7346 7345 3451 3451 3452 3465 3437 3449 3431 3458 3455 3458 3443 3472 3466 3446 3459 3426 3454 3455 3441 3459
19 12 2739 2740 2729 2738 2733 2734 2730 2751 2737 2752 2738 2733 2752 2728 2743 2732 2747 2741 2730 2758 4659 4647 4643 4654 4648 4654 4665 4656 4652 4640 4665 4636 4659 4652 4652 4658 4661 4642 4674 4630 7337 7326 7328 7337 7339 7339 7320 7330 7331 7326 7338 7331 7342 7316 7332 7338 7327 7330 7320 7319 3426 3425 3426 3439 3412 3423 3405 3433 3429 3432 3417 3446 3441 3420 3433 3400 3428 3429 3415 3433
16 2752 2753 2742 2752 2747 2748 2743 2764 2750 2765 2751 2746 2765 2741 2756 2745 2761 2754 2744 2771 4670 4658 4654 4665 4660 4665 4676 4668 4663 4651 4676 4647 4670 4663 4663 4669 4672 4653 4686 4642 7356 7344 7347 7356 7358 7358 7339 7349 7349 7345 7357 7350 7360 7335 7351 7357 7346 7348 7339 7338 3444 3444 3445 3458 3430 3441 3423 3451 3448 3450 3436 3465 3459 3439 3452 3419 3446 3448 3434 3452
2736 2737 2726 2736 2731 2732 2727 2748 2734 2749 2735 2730 2750 2725 2740 2730 2745 2738 2728 2755 4654 4642 4639 4650 4644 4649 4661 4652 4647 4635 4661 4631 4654 4648 4648 4654 4656 4637 4670 4626 7343 7331 7334 7343 7345 7345 7326 7335 7336 7332 7344 7337 7347 7322 7338 7344 7333 7335 7326 7325 3431 3430 3432 3445 3417 3428 3410 3438 3434 3437 3423 3452 3446 3425 3439 3406 3433 3435 3421 3439
6 11 10 10 15 10 12 2 15 6 7 16 14 10 9 16 5 9 20 1985 1973 1969 1979 1969 1979 1992 1984 1979 1966 1988 1961 1985 1979 1978 1985 1988 1964 2002 1953 5596 5586 5588 5599 5600 5602 5577 5591 5594 5587 5602 5596 5601 5575 5590 5593 5592 5589 5583 5587 2220 2220 2206 2229 2213 2222 2192 2236 2217 2213 2208 2250 2236 2225 2233 2212 2213 2219 2199 2220
15 4 7 10 10 13 8 12 2 13 18 12 15 14 10 2 10 18 1985 1974 1970 1980 1970 1980 1993 1985 1980 1967 1989 1962 1986 1980 1979 1986 1989 1965 2003 1954 5591 5580 5582 5593 5595 5596 5571 5585 5588 5581 5596 5590 5595 5569 5584 5587 5586 5583 5577 5581 2214 2214 2201 2223 2207 2216 2186 2230 2211 2207 2202 2244 2230 2219 2227 2206 2207 2213 2193 2214
17 14 20 10 22 8 25 14 4 23 13 14 3 26 15 7 30 1992 1981 1977 1987 1977 1987 2000 1991 1986 1973 1996 1968 1992 1987 1985 1992 1995 1972 2010 1961 5605 5594 5597 5608 5609 5610 5586 5600 5603 5595 5610 5604 5609 5583 5599 5601 5601 5598 5592 5595 2224 2224 2211 2233 2216 2226 2196 2240 2221 2217 2212 2254 2240 2229 2237 2216 2217 2223 2203 2224
5 6 10 16 11 13 4 16 22 10 19 17 9 6 11 20 1988 1977 1973 1983 1973 1983 1996 1988 1982 1969 1991 1964 1988 1983 1981 1988 1992 1968 2006 1957 5588 5577 5580 5591 5592 5593 5569 5583 5586 5578 5593 5587 5592 5566 5582 5584 5583 5580 5575 5578 2210 2210 2196 2219 2202 2212 2181 2225 2207 2203 2198 2240 2226 2215 2223 2202 2203 2209 2189 2210
6 5 20 10 18 5 14 25 5 20 15 15 8 7 25 1992 1981 1977 1987 1977 1987 2000 1992 1987 1974 1996 1969 1993 1987 1986 1993 1996 1972 2010 1961 5591 5581 5583 5594 5595 5597 5572 5586 5589 5582 5597 5591 5596 5570 5585 5588 5587 5584 5578 5581 2211 2211 2197 2220 2203 2213 2182 2226 2208 2204 2199 2241 2227 2216 2224 2203 2204 2210 2190 2211
11 23 16 19 9 19 29 8 25 21 13 12 13 25 1993 1982 1978 1988 1978 1988 2001 1993 1988 1975 1997 1970 1994 1988 1987 1994 1997 1973 2011 1962 5586 5575 5578 5589 5590 5591 5567 5581 5584 5576 5591 5585 5590 5564 5580 5582 5581 5578 5573 5576 2205 2205 2192 2215 2198 2207 2177 2221 2202 2198 2194 2235 2221 2210 2219 2197 2198 2204 2184 2205
22 9 22 8 10 26 4 19 11 19 11 3 28 1995 1983 1979 1989 1979 1990 2002 1994 1989 1976 1998 1971 1995 1989 1988 1995 1998 1974 2012 1963 5596 5586 5588 5599 5600 5602 5577 5591 5594 5586 5602 5595 5601 5575 5590 5593 5592 5589 5583 5586 2215 2214 2201 2224 2207 2217 2186 2230 2212 2207 2203 2244 2230 2219 2228 2206 2208 2213 2193 2214
14 8 15 18 7 25 12 19 15 11 21 10 1973 1962 1957 1967 1958 1968 1980 1972 1967 1954 1976 1949 1973 1968 1966 1973 1976 1952 1991 1942 5591 5580 5583 5594 5595 5597 5572 5586 5589 5581 5597 5590 5595 5570 5585 5588 5587 5584 5578 5581 2222 2221 2208 2231 2214 2224 2193 2237 2219 2214 2210 2251 2238 2226 2235 2213 2215 2220 2201 2221
17 8 5 17 13 10 7 18 7 7 22 1986 1975 1971 1981 1971 1981 1994 1986 1981 1967 1990 1962 1987 1981 1979 1987 1990 1966 2004 1955 5598 5588 5590 5601 5602 5604 5579 5593 5596 5589 5604 5598 5603 5577 5592 5595 5594 5591 5585 5588 2221 2221 2207 2230 2213 2223 2192 2236 2218 2214 2209 2251 2237 2226 2234 2213 2214 2219 2200 2221
13 22 15 24 19 24 7 11 22 7 1975 1964 1960 1970 1960 1970 1982 1974 1969 1956 1978 1951 1975 1970 1968 1975 1978 1954 1993 1944 5584 5573 5575 5586 5588 5589 5564 5578 5581 5574 5589 5583 5588 5562 5577 5580 5579 5576 5570 5574 2213 2213 2200 2223 2206 2215 2185 2229 2210 2206 2202 2243 2229 2218 2227 2205 2206 2212 2192 2213
12 20 10 16 14 12 3 9 20 1987 1976 1972 1982 1972 1982 1995 1987 1981 1968 1991 1963 1987 1982 1980 1987 1991 1967 2005 1956 5591 5580 5583 5594 5595 5596 5572 5586 5589 5581 5597 5590 5595 5570 5585 5588 5587 5584 5578 5581 2214 2213 2200 2223 2206 2216 2185 2229 2211 2207 2202 2244 2230 2219 2227 2205 2207 2212 2193 2213
20 14 10 1 23 13 8 27 1988 1977 1973 1983 1973 1983 1996 1988 1983 1970 1992 1965 1989 1983 1982 1989 1992 1968 2006 1957 5603 5593 5595 5606 5607 5609 5584 5598 5601 5594 5609 5603 5608 5582 5597 5600 5599 5596 5590 5593 2225 2224 2211 2234 2217 2227 2196 2240 2222 2217 2213 2254 2240 2229 2238 2216 2218 2223 2203 2224
29 10 20 22 17 24 14 1969 1958 1954 1964 1954 1964 1977 1969 1964 1950 1973 1945 1970 1964 1962 1970 1973 1949 1987 1938 5596 5586 5588 5599 5600 5602 5577 5591 5594 5587 5602 5596 5601 5575 5590 5593 5592 5589 5583 5587 2229 2228 2215 2238 2221 2231 2200 2244 2225 2221 2217 2258 2244 2233 2242 2220 2222 2227 2207 2228
23 15 20 13 7 30 1997 1986 1982 1992 1982 1992 2005 1997 1992 1979 2001 1974 1998 1992 1991 1998 2001 1977 2015 1966 5594 5583 5586 5597 5598 5599 5575 5589 5592 5584 5599 5593 5598 5572 5588 5590 5589 5586 5581 5584 2211 2210 2197 2220 2203 2213 2182 2226 2208 2204 2199 2241 2227 2215 2224 2202 2204 2209 2190 2210
11 23 14 17 21 1978 1967 1963 1973 1963 1973 1985 1977 1972 1959 1981 1954 1978 1973 1971 1978 1981 1958 1996 1947 5602 5591 5594 5605 5606 5608 5583 5597 5600 5592 5608 5601 5606 5581 5596 5599 5598 5595 5589 5592 2229 2229 2216 2238 2222 2231 2201 2245 2226 2222 2217 2259 2245 2234 2242 2221 2222 2228 2208 2229
25 14 9 28 1989 1977 1973 1983 1974 1984 1996 1988 1983 1970 1992 1965 1989 1984 1982 1989 1992 1968 2006 1958 5605 5594 5597 5607 5609 5610 5586 5600 5603 5595 5610 5604 5609 5583 5599 5601 5600 5597 5592 5595 2226 2225 2212 2235 2218 2228 2197 2241 2223 2219 2214 2256 2242 2230 2239 2217 2219 2224 2205 2225
11 20 13 1981 1970 1966 1976 1966 1976 1989 1981 1975 1962 1984 1957 1981 1976 1974 1981 1984 1960 1999 1950 5581 5570 5572 5583 5584 5586 5561 5575 5578 5571 5586 5580 5585 5559 5574 5577 5576 5573 5567 5571 2207 2207 2193 2216 2200 2209 2179 2223 2204 2200 2195 2237 2223 2212 2220 2199 2200 2206 2186 2207
11 17 1984 1973 1969 1979 1969 1979 1992 1984 1978 1965 1987 1960 1984 1979 1977 1984 1987 1964 2002 1953 5591 5580 5583 5594 5595 5596 5572 5586 5589 5581 5596 5590 5595 5569 5585 5587 5587 5584 5578 5581 2215 2215 2202 2225 2208 2217 2187 2231 2212 2208 2204 2245 2231 2220 2229 2207 2208 2214 2194 2215
28 1993 1982 1978 1988 1978 1988 2001 1993 1988 1974 1997 1970 1994 1988 1987 1994 1997 1973 2011 1962 5598 5588 5590 5601 5602 5604 5579 5593 5596 5588 5604 5597 5603 5577 5592 5595 5594 5591 5585 5588 2217 2217 2204 2226 2209 2219 2188 2232 2214 2210 2205 2247 2233 2222 2230 2209 2210 2216 2196 2217
1968 1957 1953 1963 1953 1963 1976 1968 1963 1950 1972 1945 1969 1963 1962 1969 1972 1948 1986 1937 5582 5571 5574 5585 5586 5587 5563 5577 5580 5572 5587 5581 5586 5560 5576 5578 5578 5575 5569 5572 2216 2215 2202 2225 2208 2218 2187 2231 2212 2208 2204 2245 2231 2220 2229 2207 2209 2214 2194 2215
12 15 6 28 5 9 9 8 19 15 24 2 10 7 5 8 26 19 33 5601 5592 5594 5605 5606 5609 5581 5598 5603 5593 5610 5606 5604 5581 5593 5592 5602 5594 5593 5601 3498 3499 3481 3501 3498 3503 3477 3513 3493 3486 3489 3522 3509 3508 3510 3505 3489 3494 3479 3493
5 9 28 7 19 12 6 8 24 14 12 7 6 12 15 23 29 26 5602 5594 5596 5607 5608 5610 5583 5600 5605 5595 5611 5607 5606 5583 5595 5594 5604 5596 5595 5602 3492 3492 3474 3494 3491 3496 3470 3506 3486 3479 3483 3515 3502 3501 3503 3498 3482 3487 3472 3486
11 25 10 23 16 11 4 25 10 16 12 9 16 20 19 34 21 5599 5590 5593 5604 5605 5607 5580 5597 5602 5592 5608 5604 5603 5580 5592 5591 5601 5593 5592 5599 3487 3487 3470 3489 3487 3491 3465 3502 3481 3474 3478 3511 3497 3497 3498 3493 3477 3483 3468 3481
23 3 15 13 9 15 15 19 7 11 3 10 13 21 25 27 5597 5588 5590 5602 5602 5605 5577 5594 5599 5589 5606 5602 5600 5577 5589 5589 5598 5590 5589 5597 3492 3493 3475 3495 3492 3497 3471 3507 3487 3480 3483 3516 3503 3502 3504 3499 3483 3488 3473 3487
26 36 36 31 26 21 23 30 33 25 32 36 9 45 19 5574 5566 5568 5579 5580 5583 5555 5572 5577 5567 5584 5579 5578 5555 5567 5566 5576 5568 5567 5575 3472 3472 3455 3475 3472 3477 3451 3487 3466 3459 3463 3496 3482 3482 3484 3479 3462 3468 3453 3467
13 10 6 14 17 19 6 8 2 7 11 23 24 29 5600 5591 5593 5605 5605 5608 5580 5597 5602 5592 5609 5605 5603 5580 5592 5591 5601 5593 5592 5600 3494 3494 3477 3497 3494 3499 3473 3509 3488 3481 3485 3518 3504 3504 3506 3501 3485 3490 3475 3489
9 13 26 19 32 8 13 15 7 5 35 11 42 5606 5597 5599 5611 5611 5614 5586 5603 5608 5598 5615 5611 5609 5586 5598 5598 5608 5599 5598 5606 3507 3507 3490 3509 3507 3511 3485 3522 3501 3494 3498 3531 3517 3517 3518 3513 3497 3503 3488 3501
6 19 24 26 7 5 11 4 4 32 18 37 5609 5600 5602 5614 5614 5617 5589 5606 5611 5601 5618 5614 5612 5589 5602 5601 5611 5602 5601 5609 3503 3503 3486 3506 3503 3508 3481 3518 3497 3490 3494 3527 3513 3513 3515 3509 3493 3499 3484 3498
14 23 20 8 2 7 6 9 27 23 32 5606 5597 5599 5611 5611 5614 5586 5603 5608 5598 5615 5611 5609 5586 5598 5598 5607 5599 5598 5606 3498 3498 3480 3500 3497 3502 3476 3512 3492 3485 3488 3521 3508 3507 3509 3504 3488 3493 3478 3492
28 7 19 15 12 19 23 19 37 19 5600 5591 5593 5605 5605 5608 5580 5597 5602 5592 5609 5605 5603 5580 5592 5592 5601 5593 5592 5600 3485 3485 3467 3487 3484 3489 3463 3499 3479 3472 3476 3508 3495 3494 3496 3491 3475 3480 3465 3479
30 17 25 18 20 22 24 27 35 5586 5578 5580 5591 5592 5595 5567 5584 5589 5579 5596 5592 5590 5567 5579 5578 5588 5580 5579 5587 3493 3493 3475 3495 3492 3497 3471 3507 3487 3480 3483 3516 3503 3502 3504 3499 3483 3488 3473 3487
25 22 17 25 29 14 43 12 5593 5585 5587 5598 5599 5602 5574 5591 5596 5586 5603 5598 5597 5574 5586 5585 5595 5587 5586 5594 3478 3478 3460 3480 3477 3482 3456 3492 3472 3465 3468 3501 3488 3487 3489 3484 3468 3473 3458 3472
9 7 3 6 28 18 34 5602 5593 5596 5607 5608 5610 5582 5600 5605 5595 5611 5607 5605 5583 5595 5594 5604 5595 5595 5602 3500 3500 3482 3502 3499 3504 3478 3514 3494 3487 3491 3523 3510 3509 3511 3506 3490 3495 3480 3494
9 6 9 29 23 33 5608 5599 5601 5613 5613 5616 5588 5605 5610 5600 5617 5613 5611 5588 5600 5600 5609 5601 5600 5608 3499 3499 3482 3502 3499 3504 3477 3514 3493 3486 3490 3523 3509 3509 3511 3505 3489 3495 3480 3494
9 13 21 26 27 5599 5590 5592 5604 5605 5607 5579 5597 5602 5591 5608 5604 5602 5579 5592 5591 5601 5592 5592 5599 3493 3493 3475 3495 3493 3497 3471 3508 3487 3480 3484 3517 3503 3503 3504 3499 3483 3488 3473 3487
4 30 18 36 5605 5596 5599 5610 5611 5613 5586 5603 5608 5598 5614 5610 5609 5586 5598 5597 5607 5599 5598 5605 3502 3502 3484 3504 3501 3506 3480 3516 3496 3489 3492 3525 3512 3511 3513 3508 3492 3497 3482 3496
34 14 40 5608 5599 5601 5613 5614 5616 5588 5606 5611 5600 5617 5613 5611 5588 5601 5600 5610 5601 5601 5608 3505 3505 3488 3508 3505 3510 3484 3520 3499 3492 3496 3529 3515 3515 3517 3512 3496 3501 3486 3500
45 12 5580 5572 5574 5585 5586 5588 5561 5578 5583 5573 5589 5585 5584 5561 5573 5572 5582 5574 5573 5580 3472 3472 3455 3475 3472 3477 3450 3487 3466 3459 3463 3496 3482 3482 3484 3478 3462 3468 3453 3467
53 5611 5602 5605 5616 5617 5619 5591 5609 5614 5604 5620 5616 5614 5592 5604 5603 5613 5604 5604 5611 3517 3517 3500 3520 3517 3522 3496 3532 3511 3504 3508 3541 3527 3527 3529 3524 3507 3513 3498 3512
5583 5574 5576 5588 5588 5591 5563 5580 5585 5575 5592 5588 5586 5563 5576 5575 5585 5576 5575 5583 3466 3466 3449 3469 3466 3471 3444 3481 3460 3453 3457 3490 3476 3476 3478 3472 3456 3462 3447 3461
11 9 7 7 10 20 9 14 11 13 17 4 22 7 14 18 8 19 29 3913 3914 3914 3900 3927 3916 3935 3906 3910 3908 3922 3892 3898 3919 3905 3938 3912 3910 3925 3906
3 14 15 17 12 7 13 2 18 16 16 11 9 19 15 4 11 23 3902 3903 3902 3888 3916 3905 3924 3894 3899 3896 3911 3880 3887 3907 3894 3927 3900 3898 3913 3895
11 12 15 14 5 12 2 16 15 13 13 8 18 14 2 12 24 3904 3905 3905 3891 3918 3907 3926 3897 3901 3899 3913 3883 3889 3910 3896 3930 3903 3901 3916 3897
2 3 25 8 8 13 6 10 9 25 14 21 12 12 17 24 3914 3915 3914 3900 3928 3917 3936 3906 3911 3908 3922 3892 3898 3919 3906 3939 3912 3910 3925 3906
4 25 9 10 14 6 12 7 26 14 21 14 12 19 26 3915 3916 3916 3902 3929 3918 3937 3908 3912 3910 3924 3894 3900 3921 3907 3940 3914 3912 3927 3908
28 11 9 16 3 10 11 28 17 24 13 15 19 24 3916 3916 3916 3902 3930 3918 3938 3908 3913 3910 3924 3894 3900 3921 3907 3941 3914 3912 3927 3908
18 25 13 30 28 24 7 13 18 26 13 20 33 3896 3897 3897 3883 3910 3899 3918 3889 3893 3891 3905 3875 3881 3902 3888 3922 3895 3893 3908 3889
7 5 12 10 13 17 11 21 10 6 10 20 3906 3907 3906 3892 3920 3909 3928 3898 3903 3901 3915 3884 3891 3911 3898 3931 3904 3902 3917 3899
11 8 4 16 22 18 27 4 13 11 16 3907 3908 3907 3893 3921 3910 3929 3900 3904 3902 3916 3885 3892 3912 3899 3932 3906 3904 3919 3900
17 15 16 12 10 20 13 4 10 22 3902 3903 3903 3889 3916 3905 3924 3895 3899 3897 3911 3881 3887 3908 3894 3928 3901 3899 3914 3895
8 14 29 20 27 11 17 19 22 3915 3916 3915 3901 3929 3918 3937 3907 3912 3909 3924 3893 3899 3920 3907 3940 3913 3911 3926 3908
19 25 21 30 4 17 13 14 3907 3908 3908 3894 3921 3910 3929 3900 3904 3902 3916 3886 3892 3913 3899 3933 3906 3904 3919 3900
26 11 14 21 12 24 32 3918 3919 3918 3904 3932 3921 3940 3910 3915 3912 3927 3896 3902 3923 3910 3943 3916 3914 3929 3911
17 24 23 14 15 28 3892 3893 3892 3878 3906 3895 3914 3884 3889 3887 3901 3870 3877 3897 3884 3917 3890 3888 3903 3885
10 21 6 19 31 3909 3909 3909 3895 3923 3911 3930 3901 3906 3903 3917 3887 3893 3914 3900 3934 3907 3905 3920 3901
30 15 29 41 3914 3915 3914 3900 3928 3917 3936 3906 3911 3909 3923 3892 3899 3919 3906 3939 3912 3910 3925 3907
16 9 12 3904 3905 3904 3890 3918 3907 3926 3896 3901 3899 3913 3882 3889 3909 3896 3929 3902 3900 3915 3897
14 26 3906 3907 3906 3892 3920 3908 3928 3898 3903 3900 3914 3884 3890 3911 3897 3931 3904 3902 3917 3898
14 3896 3897 3897 3883 3910 3899 3918 3889 3893 3891 3905 3875 3881 3902 3888 3922 3895 3893 3908 3889
3896 3896 3896 3882 3909 3898 3918 3888 3893 3890 3904 3874 3880 3901 3887 3921 3894 3892 3907 3888
1 18 14 14 6 29 16 7 15 12 30 17 12 13 27 10 6 21 10
18 15 13 5 28 16 8 15 11 31 18 11 14 26 11 7 21 11
23 24 23 22 32 12 7 13 44 30 29 29 37 8 13 11 13
28 17 41 15 13 17 24 22 8 22 11 40 16 12 31 10
12 22 25 19 25 11 40 30 12 24 14 19 19 20 23
31 14 13 20 14 29 18 6 12 23 16 12 25 15
44 28 28 17 59 46 34 42 29 25 29 11 32
21 28 27 16 10 13 3 33 25 19 37 20
8 12 33 19 19 18 32 4 2 18 4
15 38 24 27 24 39 5 9 17 7
42 29 19 25 24 10 13 10 16
14 29 17 48 37 31 51 31
21 7 41 23 17 37 17
14 20 22 18 29 21
33 22 16 34 17
33 32 31 36
6 15 7
20 4
22

EOF
