NAME: clustered_50_s2
TYPE: TSP
DIMENSION: 50
EDGE_WEIGHT_TYPE: EXPLICIT
EDGE_WEIGHT_FORMAT: UPPER_ROW
EDGE_WEIGHT_SECTION
42 32 20 25 17 25 21 16 29 7914 7924 7894 7925 7930 7921 7921 7906 7930 7905 4334 4317 4343 4337 4336 4358 4331 4341 4333 4340 2709 2711 2698 2691 2707 2706 2693 2706 2694 2695 7374 7361 7359 7355 7353 7345 7367 7372 7363 7377
22 23 17 29 18 22 26 14 7875 7885 7855 7886 7891 7881 7882 7867 7891 7865 4308 4292 4318 4312 4311 4333 4306 4315 4307 4315 2668 2670 2657 2650 2665 2664 2652 2665 2653 2654 7345 7332 7330 7326 7324 7316 7338 7343 7334 7348
15 17 16 12 16 17 13 7894 7904 7874 7905 7910 7901 7901 7886 7910 7885 4330 4313 4340 4333 4332 4355 4327 4337 4329 4336 2686 2687 2675 2667 2683 2682 2670 2682 2670 2672 7366 7353 7352 7348 7345 7338 7359 7365 7356 7370
7 7 5 3 4 9 7897 7907 7878 7908 7913 7904 7904 7889 7913 7888 4325 4308 4335 4329 4328 4350 4322 4332 4324 4331 2691 2692 2680 2672 2688 2687 2675 2687 2675 2677 7363 7350 7348 7345 7342 7334 7356 7362 7353 7367
14 6 5 10 5 7890 7900 7871 7901 7906 7897 7897 7882 7906 7881 4318 4301 4328 4321 4320 4343 4315 4325 4317 4324 2684 2686 2673 2666 2682 2681 2668 2681 2669 2670 7356 7343 7341 7337 7335 7327 7349 7354 7345 7359
10 9 5 15 7903 7913 7884 7914 7920 7910 7911 7895 7920 7894 4331 4315 4341 4335 4334 4356 4329 4338 4330 4338 2697 2698 2686 2678 2694 2693 2681 2693 2681 2683 7369 7357 7355 7351 7348 7341 7363 7368 7359 7373
5 9 5 7893 7903 7873 7904 7909 7900 7900 7885 7909 7884 4323 4306 4333 4326 4325 4348 4320 4330 4322 4329 2686 2688 2675 2668 2684 2683 2670 2683 2671 2672 7360 7348 7346 7342 7339 7332 7353 7359 7350 7364
5 8 7895 7905 7876 7906 7912 7902 7903 7887 7911 7886 4322 4306 4332 4326 4325 4347 4320 4329 4321 4329 2689 2691 2678 2671 2687 2686 2673 2686 2674 2675 7360 7348 7346 7342 7340 7332 7354 7359 7350 7364
13 7900 7910 7881 7911 7917 7907 7908 7892 7917 7891 4327 4310 4337 4330 4330 4352 4324 4334 4326 4333 2694 2696 2683 2676 2692 2691 2678 2691 2679 2680 7365 7352 7350 7347 7344 7337 7358 7364 7355 7369
7888 7898 7869 7899 7904 7895 7895 7880 7904 7879 4318 4302 4329 4322 4321 4343 4316 4326 4318 4325 2682 2683 2671 2663 2679 2678 2666 2678 2666 2668 7356 7343 7341 7338 7335 7327 7349 7355 7346 7360
39 24 20 21 13 8 12 16 19 4788 4797 4808 4788 4790 4787 4807 4798 4801 4806 5244 5242 5258 5262 5252 5249 5261 5248 5262 5261 3440 3438 3429 3435 3436 3428 3422 3408 3435 3445
38 21 26 27 34 34 39 29 4779 4788 4799 4778 4781 4778 4798 4789 4792 4797 5257 5255 5271 5275 5265 5262 5273 5260 5274 5274 3408 3407 3397 3404 3404 3397 3390 3376 3403 3413
30 36 26 28 12 38 11 4764 4773 4784 4764 4766 4763 4784 4775 4777 4782 5226 5224 5240 5244 5234 5231 5242 5229 5243 5243 3420 3418 3408 3415 3416 3408 3402 3388 3415 3425
6 6 13 20 18 20 4790 4799 4810 4789 4791 4789 4809 4800 4803 4808 5256 5254 5270 5274 5264 5261 5273 5260 5274 5273 3429 3427 3417 3424 3425 3417 3411 3396 3424 3433
10 13 25 14 26 4796 4805 4816 4796 4798 4795 4816 4806 4809 4814 5261 5259 5275 5279 5270 5267 5278 5265 5279 5278 3434 3432 3422 3429 3430 3422 3416 3401 3429 3439
7 15 15 17 4789 4797 4808 4788 4790 4787 4808 4799 4801 4807 5252 5250 5266 5270 5260 5257 5268 5255 5269 5269 3432 3430 3420 3427 3428 3420 3414 3400 3427 3437
16 10 20 4792 4801 4812 4792 4794 4791 4812 4803 4805 4811 5252 5250 5266 5270 5260 5257 5268 5255 5269 5269 3438 3437 3427 3434 3434 3427 3420 3406 3433 3443
26 8 4777 4785 4796 4776 4778 4776 4796 4787 4789 4795 5237 5235 5251 5255 5245 5242 5253 5240 5254 5254 3429 3427 3417 3424 3424 3417 3411 3396 3424 3433
31 4803 4811 4822 4802 4804 4801 4822 4813 4815 4821 5260 5258 5274 5278 5269 5266 5277 5264 5278 5277 3446 3445 3435 3442 3442 3435 3428 3414 3441 3451
4772 4781 4792 4772 4774 4771 4791 4782 4785 4790 5236 5234 5250 5254 5244 5241 5253 5240 5254 5253 3421 3419 3410 3417 3417 3409 3403 3389 3416 3426
16 30 4 5 28 21 18 14 25 2825 2822 2844 2829 2852 2834 2834 2827 2841 2844 3093 3081 3080 3076 3073 3067 3089 3097 3084 3096
39 20 20 43 25 28 21 33 2812 2809 2831 2816 2839 2821 2821 2814 2828 2831 3109 3097 3096 3092 3089 3083 3105 3113 3100 3112
28 26 22 15 13 18 5 2850 2847 2869 2854 2877 2859 2859 2852 2866 2869 3091 3078 3078 3073 3071 3064 3087 3095 3081 3094
2 24 20 15 14 23 2829 2826 2848 2833 2856 2838 2838 2831 2845 2847 3090 3078 3077 3072 3070 3063 3086 3094 3080 3093
24 18 13 11 21 2830 2826 2848 2833 2856 2839 2838 2831 2845 2848 3091 3079 3078 3074 3071 3065 3087 3095 3082 3094
29 18 26 22 2853 2850 2871 2857 2879 2862 2861 2854 2868 2871 3072 3060 3059 3055 3052 3046 3068 3076 3063 3075
11 7 10 2836 2833 2854 2840 2862 2845 2844 2837 2851 2854 3101 3088 3088 3083 3081 3074 3097 3105 3091 3104
8 9 2841 2837 2859 2844 2867 2850 2849 2842 2856 2859 3090 3078 3077 3073 3070 3064 3086 3094 3081 3093
13 2833 2830 2852 2837 2860 2842 2842 2835 2849 2852 3098 3085 3085 3080 3077 3071 3094 3101 3088 3101
2845 2842 2864 2849 2872 2854 2854 2847 2861 2864 3093 3081 3080 3076 3073 3067 3089 3097 3084 3096
3 20 18 27 9 17 4 20 21 5333 5320 5316 5314 5312 5303 5321 5323 5322 5338
23 20 30 12 19 6 23 24 5330 5317 5313 5311 5309 5300 5318 5320 5319 5335
19 13 11 13 17 6 3 5353 5340 5336 5334 5332 5322 5341 5342 5341 5357
31 17 6 15 13 17 5345 5332 5328 5326 5324 5314 5333 5334 5333 5349
18 25 26 19 16 5355 5343 5338 5337 5334 5325 5344 5345 5344 5360
13 7 12 13 5342 5329 5325 5323 5321 5311 5330 5331 5330 5346
13 7 11 5347 5334 5330 5328 5326 5317 5336 5337 5336 5352
17 18 5336 5323 5319 5317 5315 5306 5324 5326 5325 5341
4 5352 5340 5335 5334 5331 5322 5341 5342 5341 5357
5354 5341 5337 5335 5333 5324 5343 5344 5343 5359
13 18 19 21 30 19 32 11 6
10 6 8 18 18 33 4 17
8 10 14 11 26 7 24
3 12 18 33 8 23
11 20 35 11 26
23 35 19 35
16 14 24
29 37
17

EOF
