NAME: clustered_200_s1
TYPE: TSP
DIMENSION: 200
EDGE_WEIGHT_TYPE: EXPLICIT
EDGE_WEIGHT_FORMAT: UPPER_ROW
EDGE_WEIGHT_SECTION
18 21 16 19 16 21 11 15 11 25 31 10 15 18 34 20 9 14 17 5 15 8 22 5 9 6 14 19 16 13 8 21 25 13 24 22 7 10 16 3217 3234 3222 3219 3230 3226 3229 3240 3231 3226 3215 3241 3212 3234 3226 3227 3233 3235 3219 3248 3208 3237 3237 3229 3231 3232 3234 3232 3233 3228 3225 3228 3229 3222 3241 3225 3238 3248 3220 3233 8629 8620 8620 8620 8606 8629 8613 8623 8592 8636 8617 8612 8609 8650 8636 8626 8633 8613 8613 8618 8599 8619 8630 8625 8631 8621 8619 8613 8621 8623 8611 8622 8620 8637 8621 8608 8628 8623 8636 8636 9196 9200 9207 9205 9198 9202 9193 9208 9213 9200 9210 9196 9166 9206 9201 9192 9205 9195 9194 9207 9200 9189 9192 9197 9192 9205 9201 9206 9203 9201 9191 9185 9207 9200 9199 9184 9206 9203 9210 9201 2597 2610 2602 2595 2626 2614 2621 2603 2610 2608 2615 2598 2601 2605 2605 2597 2614 2601 2607 2600 2597 2606 2625 2598 2611 2599 2603 2616 2603 2606 2598 2609 2617 2604 2611 2622 2602 2619 2597 2602
14 6 9 18 14 11 18 12 7 43 14 7 20 20 3 25 8 24 17 11 13 5 14 10 15 5 23 9 24 12 7 26 8 17 8 23 14 3 3229 3245 3234 3230 3241 3238 3241 3252 3242 3238 3227 3253 3224 3245 3238 3239 3244 3247 3231 3260 3220 3249 3249 3241 3242 3244 3246 3244 3244 3240 3236 3240 3241 3234 3253 3237 3250 3259 3232 3245 8642 8632 8632 8632 8618 8641 8626 8635 8604 8648 8629 8625 8621 8662 8648 8638 8646 8625 8625 8631 8611 8632 8642 8637 8643 8633 8632 8626 8633 8635 8623 8635 8632 8649 8634 8620 8640 8636 8649 8648 9213 9217 9224 9222 9215 9219 9209 9225 9230 9217 9227 9213 9183 9223 9218 9208 9222 9211 9211 9223 9217 9206 9209 9214 9209 9221 9217 9223 9220 9218 9207 9202 9224 9217 9215 9201 9223 9219 9227 9217 2611 2623 2615 2609 2639 2627 2635 2616 2624 2621 2629 2611 2615 2619 2618 2610 2627 2615 2620 2613 2610 2619 2638 2611 2624 2612 2616 2629 2616 2619 2611 2623 2631 2618 2625 2635 2615 2632 2611 2615
9 6 8 1 10 9 10 19 33 11 8 31 15 12 22 8 14 16 7 12 12 16 17 22 16 11 7 17 13 8 12 20 3 9 21 11 14 3216 3233 3221 3218 3228 3225 3228 3239 3229 3225 3214 3240 3211 3232 3225 3226 3232 3234 3218 3247 3207 3236 3236 3228 3229 3231 3233 3231 3231 3227 3223 3227 3228 3221 3240 3224 3237 3246 3219 3232 8650 8640 8641 8640 8627 8649 8634 8643 8613 8656 8637 8633 8629 8670 8656 8646 8654 8634 8634 8639 8620 8640 8650 8646 8652 8642 8640 8634 8642 8643 8631 8643 8640 8658 8642 8628 8648 8644 8657 8656 9216 9220 9227 9225 9218 9222 9212 9228 9233 9220 9229 9215 9186 9226 9221 9211 9225 9214 9214 9226 9220 9208 9212 9217 9212 9224 9220 9226 9222 9221 9210 9205 9227 9220 9218 9204 9226 9222 9229 9220 2599 2611 2603 2597 2627 2615 2623 2604 2612 2609 2617 2599 2603 2607 2606 2598 2615 2603 2608 2601 2598 2607 2626 2599 2612 2600 2604 2618 2604 2607 2599 2611 2619 2606 2613 2623 2603 2620 2599 2603
4 12 9 7 13 7 12 38 9 2 22 19 5 21 3 19 13 5 9 6 11 9 15 6 17 3 19 8 5 20 10 13 6 19 9 4 3223 3240 3228 3225 3236 3233 3235 3246 3237 3233 3221 3248 3218 3240 3233 3234 3239 3241 3225 3255 3214 3243 3244 3235 3237 3239 3240 3238 3239 3235 3231 3234 3236 3228 3247 3232 3244 3254 3226 3239 8643 8633 8634 8633 8620 8642 8627 8636 8606 8649 8631 8626 8622 8663 8649 8639 8647 8627 8627 8632 8613 8633 8643 8639 8645 8635 8633 8627 8635 8636 8624 8636 8633 8651 8635 8621 8641 8637 8650 8649 9212 9216 9223 9221 9214 9218 9208 9224 9229 9216 9226 9212 9182 9222 9217 9207 9221 9210 9210 9222 9216 9205 9208 9213 9208 9220 9216 9222 9219 9217 9206 9201 9223 9216 9214 9200 9222 9218 9226 9216 2605 2618 2610 2603 2634 2622 2629 2610 2618 2616 2623 2606 2609 2613 2613 2604 2622 2609 2615 2608 2605 2614 2633 2606 2618 2607 2610 2624 2611 2614 2606 2617 2625 2612 2619 2630 2610 2627 2605 2610
10 5 8 11 8 13 37 10 4 27 16 6 23 5 18 15 5 11 7 14 13 18 11 15 3 19 10 3 17 15 9 4 21 10 8 3221 3238 3226 3223 3234 3230 3233 3244 3235 3230 3219 3246 3216 3238 3230 3231 3237 3239 3223 3252 3212 3241 3241 3233 3234 3237 3238 3236 3237 3232 3229 3232 3233 3226 3245 3229 3242 3252 3224 3237 8647 8637 8638 8637 8624 8646 8631 8640 8609 8653 8634 8630 8626 8667 8653 8643 8651 8631 8630 8636 8617 8637 8647 8643 8649 8639 8637 8631 8639 8640 8628 8640 8637 8655 8639 8625 8645 8641 8654 8653 9215 9219 9226 9224 9217 9221 9211 9227 9232 9219 9228 9214 9185 9225 9220 9210 9224 9213 9213 9225 9219 9208 9211 9216 9211 9223 9219 9225 9221 9220 9209 9204 9226 9219 9217 9203 9225 9221 9229 9219 2603 2616 2608 2602 2632 2620 2627 2609 2617 2614 2622 2604 2607 2611 2611 2603 2620 2607 2613 2606 2603 2612 2631 2604 2617 2605 2609 2622 2609 2612 2604 2616 2623 2611 2617 2628 2608 2625 2603 2608
8 8 1 8 23 26 6 10 30 22 16 15 9 7 10 7 8 17 12 15 19 17 5 9 10 10 13 10 20 9 14 14 7 16 3211 3228 3216 3213 3224 3221 3223 3234 3225 3221 3209 3236 3206 3228 3221 3222 3227 3229 3214 3243 3202 3231 3232 3223 3225 3227 3229 3226 3227 3223 3219 3223 3224 3216 3235 3220 3232 3242 3215 3227 8645 8635 8635 8635 8621 8644 8628 8638 8607 8651 8632 8627 8624 8665 8651 8641 8649 8628 8628 8634 8614 8634 8645 8640 8646 8636 8634 8629 8636 8638 8626 8637 8635 8652 8636 8623 8643 8639 8652 8651 9209 9212 9220 9217 9210 9215 9205 9221 9226 9213 9222 9208 9179 9219 9213 9204 9217 9207 9207 9219 9213 9201 9204 9210 9205 9217 9213 9219 9215 9214 9203 9198 9219 9213 9211 9197 9218 9215 9222 9213 2593 2606 2598 2591 2622 2610 2617 2599 2607 2604 2612 2594 2597 2601 2601 2593 2610 2597 2603 2596 2593 2602 2621 2594 2607 2595 2599 2612 2599 2602 2594 2606 2613 2601 2607 2618 2598 2615 2593 2598
10 9 10 18 33 11 8 31 14 11 22 8 15 16 6 12 11 16 16 22 15 12 6 18 13 7 12 19 4 8 21 11 13 3216 3233 3221 3218 3229 3226 3228 3239 3230 3226 3214 3241 3211 3233 3226 3227 3232 3234 3219 3248 3207 3237 3237 3228 3230 3232 3234 3231 3232 3228 3224 3228 3229 3222 3240 3225 3238 3247 3220 3232 8650 8640 8641 8640 8626 8649 8634 8643 8612 8656 8637 8633 8629 8670 8656 8646 8654 8634 8633 8639 8620 8640 8650 8646 8651 8642 8640 8634 8642 8643 8631 8643 8640 8658 8642 8628 8648 8644 8657 8656 9216 9220 9227 9225 9218 9222 9212 9228 9233 9220 9229 9215 9186 9226 9221 9211 9225 9214 9214 9226 9220 9209 9212 9217 9212 9224 9220 9226 9222 9221 9210 9205 9227 9220 9218 9204 9226 9222 9230 9220 2599 2612 2604 2597 2628 2616 2623 2605 2612 2610 2618 2600 2603 2607 2607 2599 2616 2603 2609 2602 2599 2608 2627 2600 2613 2601 2605 2618 2605 2608 2600 2612 2619 2606 2613 2624 2604 2621 2599 2604
8 0 18 32 3 5 22 24 11 15 4 13 7 4 2 13 6 7 11 9 13 6 13 2 11 18 12 13 12 13 2 9 3218 3235 3223 3220 3231 3227 3230 3241 3232 3227 3216 3242 3213 3235 3227 3228 3234 3236 3220 3249 3209 3238 3238 3230 3231 3234 3235 3233 3234 3229 3226 3229 3230 3223 3242 3226 3239 3249 3221 3234 8640 8630 8630 8630 8616 8639 8623 8633 8602 8646 8627 8622 8619 8660 8646 8636 8644 8623 8623 8629 8609 8629 8640 8635 8641 8631 8630 8624 8631 8633 8621 8632 8630 8647 8632 8618 8638 8634 8647 8646 9206 9210 9218 9215 9208 9213 9203 9218 9224 9211 9220 9206 9177 9217 9211 9202 9215 9205 9205 9217 9211 9199 9202 9208 9203 9215 9211 9217 9213 9212 9201 9195 9217 9211 9209 9194 9216 9213 9220 9211 2599 2612 2604 2598 2628 2616 2623 2605 2613 2610 2618 2600 2604 2607 2607 2599 2616 2603 2609 2602 2599 2608 2627 2600 2613 2601 2605 2618 2605 2608 2600 2612 2619 2607 2614 2624 2604 2621 2599 2604
8 24 25 6 11 30 23 17 14 10 6 10 8 9 18 12 15 19 17 5 10 9 10 14 10 20 10 15 13 7 16 3211 3227 3215 3212 3223 3220 3222 3233 3224 3220 3209 3235 3205 3227 3220 3221 3226 3228 3213 3242 3201 3231 3231 3223 3224 3226 3228 3225 3226 3222 3218 3222 3223 3216 3234 3219 3232 3241 3214 3226 8644 8634 8635 8634 8621 8643 8628 8637 8607 8650 8631 8627 8623 8664 8650 8640 8648 8628 8628 8633 8614 8634 8644 8640 8646 8636 8634 8628 8636 8637 8625 8637 8634 8652 8636 8622 8642 8638 8651 8650 9208 9211 9219 9217 9210 9214 9204 9220 9225 9212 9221 9207 9178 9218 9213 9203 9217 9206 9206 9218 9212 9200 9204 9209 9204 9216 9212 9218 9214 9213 9202 9197 9219 9212 9210 9196 9218 9214 9221 9212 2592 2605 2597 2591 2621 2609 2616 2598 2606 2603 2611 2593 2597 2600 2600 2592 2609 2596 2602 2595 2592 2601 2620 2593 2606 2594 2598 2611 2598 2601 2593 2605 2612 2600 2607 2617 2597 2614 2592 2597
18 32 2 5 23 24 11 15 4 13 7 4 2 13 6 8 12 9 13 6 13 3 11 17 12 13 12 13 2 9 3218 3234 3223 3219 3230 3227 3230 3241 3231 3227 3216 3242 3213 3234 3227 3228 3233 3236 3220 3249 3209 3238 3238 3230 3231 3233 3235 3233 3233 3229 3225 3229 3230 3223 3242 3226 3239 3248 3221 3234 8640 8630 8631 8630 8616 8639 8624 8633 8602 8646 8627 8623 8619 8660 8646 8636 8644 8624 8623 8629 8609 8630 8640 8636 8641 8632 8630 8624 8632 8633 8621 8633 8630 8648 8632 8618 8638 8634 8647 8646 9207 9210 9218 9216 9209 9213 9203 9219 9224 9211 9220 9206 9177 9217 9212 9202 9216 9205 9205 9217 9211 9199 9203 9208 9203 9215 9211 9217 9213 9212 9201 9196 9218 9211 9209 9195 9217 9213 9220 9211 2599 2612 2604 2597 2628 2616 2623 2605 2613 2610 2618 2600 2603 2607 2607 2599 2616 2603 2609 2602 2599 2608 2627 2600 2613 2601 2605 2618 2605 2608 2600 2612 2619 2607 2613 2624 2604 2621 2599 2604
49 20 13 23 20 7 32 14 30 24 17 20 7 21 16 21 11 29 14 31 18 11 30 13 21 10 30 20 10 3234 3251 3239 3236 3247 3244 3246 3257 3248 3244 3232 3259 3229 3251 3244 3245 3250 3252 3237 3266 3225 3255 3255 3246 3248 3250 3252 3249 3250 3246 3242 3246 3247 3240 3258 3243 3256 3265 3238 3250 8645 8635 8635 8635 8621 8644 8628 8638 8607 8651 8632 8628 8624 8665 8651 8641 8649 8628 8628 8634 8614 8634 8645 8640 8646 8636 8635 8629 8636 8638 8626 8638 8635 8652 8637 8623 8643 8639 8652 8651 9218 9222 9229 9227 9220 9224 9215 9230 9235 9222 9232 9218 9188 9228 9223 9214 9227 9217 9216 9229 9223 9211 9214 9219 9214 9227 9223 9228 9225 9223 9213 9207 9229 9222 9221 9206 9228 9225 9232 9223 2617 2629 2621 2615 2646 2634 2641 2622 2630 2627 2635 2617 2621 2625 2624 2616 2633 2621 2627 2619 2616 2625 2644 2617 2630 2618 2622 2636 2622 2625 2617 2629 2637 2624 2631 2641 2621 2638 2617 2621
29 36 49 46 42 22 35 19 28 33 31 43 32 37 37 41 21 35 19 32 40 24 42 33 41 24 30 41 3187 3203 3191 3188 3199 3196 3198 3209 3200 3196 3185 3211 3181 3203 3196 3197 3202 3204 3189 3218 3177 3207 3207 3199 3200 3202 3204 3201 3202 3198 3194 3198 3199 3192 3210 3195 3208 3217 3190 3202 8640 8630 8630 8630 8616 8639 8623 8633 8602 8646 8627 8622 8619 8660 8646 8636 8644 8623 8623 8628 8609 8629 8640 8635 8641 8631 8629 8624 8631 8633 8621 8632 8630 8647 8631 8618 8638 8634 8646 8646 9193 9197 9205 9202 9195 9200 9190 9205 9211 9198 9207 9193 9164 9204 9198 9189 9202 9192 9192 9204 9198 9186 9189 9195 9190 9202 9198 9203 9200 9199 9188 9182 9204 9198 9196 9181 9203 9200 9207 9198 2568 2580 2572 2566 2597 2585 2592 2573 2581 2578 2586 2568 2572 2576 2575 2567 2584 2572 2577 2570 2567 2576 2595 2568 2581 2569 2573 2587 2573 2576 2568 2580 2588 2575 2582 2592 2572 2589 2568 2572
7 24 25 14 13 6 11 5 5 2 15 6 9 12 12 11 7 11 4 13 16 14 13 14 11 1 11 3216 3232 3220 3217 3228 3225 3227 3238 3229 3225 3214 3240 3210 3232 3225 3226 3231 3233 3218 3247 3206 3236 3236 3228 3229 3231 3233 3230 3231 3227 3223 3227 3228 3221 3239 3224 3237 3246 3219 3231 8640 8630 8630 8630 8616 8639 8623 8633 8602 8646 8627 8622 8619 8660 8646 8636 8644 8623 8623 8628 8609 8629 8640 8635 8641 8631 8629 8624 8631 8633 8621 8632 8630 8647 8631 8618 8638 8634 8647 8646 9205 9209 9217 9214 9207 9212 9202 9217 9223 9210 9219 9205 9176 9215 9210 9201 9214 9204 9204 9216 9210 9198 9201 9206 9201 9214 9210 9215 9212 9210 9200 9194 9216 9210 9208 9193 9215 9212 9219 9210 2597 2609 2602 2595 2626 2614 2621 2602 2610 2608 2615 2598 2601 2605 2604 2596 2614 2601 2607 2599 2597 2605 2625 2598 2610 2599 2602 2616 2602 2606 2597 2609 2617 2604 2611 2622 2602 2618 2597 2602
23 19 6 20 1 17 12 3 7 8 10 9 15 7 16 2 18 7 5 19 11 12 7 18 7 6 3222 3238 3226 3223 3234 3231 3233 3244 3235 3231 3220 3246 3216 3238 3231 3232 3237 3239 3224 3253 3212 3242 3242 3234 3235 3237 3239 3236 3237 3233 3229 3233 3234 3227 3245 3230 3243 3252 3225 3237 8643 8633 8634 8634 8620 8643 8627 8636 8606 8649 8631 8626 8622 8664 8649 8639 8647 8627 8627 8632 8613 8633 8643 8639 8645 8635 8633 8627 8635 8636 8624 8636 8634 8651 8635 8622 8642 8637 8650 8649 9211 9215 9223 9220 9213 9218 9208 9223 9228 9215 9225 9211 9182 9221 9216 9207 9220 9210 9210 9222 9216 9204 9207 9212 9207 9220 9216 9221 9218 9216 9206 9200 9222 9216 9214 9199 9221 9218 9225 9216 2603 2616 2608 2602 2632 2620 2627 2609 2617 2614 2622 2604 2608 2611 2611 2603 2620 2607 2613 2606 2603 2612 2631 2604 2617 2605 2609 2622 2609 2612 2604 2616 2623 2611 2618 2628 2608 2625 2603 2608
40 23 27 23 34 22 25 22 25 18 15 12 16 35 25 31 20 27 40 12 35 27 25 23 19 3234 3251 3239 3236 3247 3244 3246 3257 3248 3244 3232 3259 3229 3251 3244 3245 3250 3252 3237 3266 3225 3255 3255 3246 3248 3250 3252 3249 3250 3246 3242 3246 3247 3239 3258 3243 3255 3265 3238 3250 8622 8612 8613 8613 8599 8622 8606 8615 8585 8628 8610 8605 8601 8643 8628 8618 8626 8606 8606 8611 8592 8612 8622 8618 8624 8614 8612 8606 8614 8616 8603 8615 8613 8630 8614 8601 8621 8616 8629 8628 9196 9200 9207 9205 9198 9202 9193 9208 9213 9200 9210 9196 9166 9206 9201 9192 9205 9195 9194 9207 9201 9189 9192 9197 9192 9205 9201 9206 9203 9201 9191 9185 9207 9201 9199 9184 9206 9203 9210 9201 2614 2626 2618 2612 2643 2631 2638 2619 2627 2625 2632 2614 2618 2622 2621 2613 2631 2618 2623 2616 2613 2622 2641 2614 2627 2616 2619 2633 2619 2622 2614 2626 2634 2621 2628 2639 2619 2635 2614 2618
17 37 20 29 30 20 26 15 29 28 34 24 25 18 32 26 14 22 28 14 13 35 25 22 3223 3239 3228 3224 3235 3232 3235 3246 3236 3232 3221 3247 3218 3239 3232 3233 3238 3241 3225 3254 3214 3243 3243 3235 3236 3238 3240 3238 3238 3234 3230 3234 3235 3228 3247 3231 3244 3253 3226 3239 8662 8652 8653 8652 8639 8661 8646 8655 8624 8668 8649 8645 8641 8682 8668 8658 8666 8646 8645 8651 8632 8652 8662 8658 8664 8654 8652 8646 8654 8655 8643 8655 8652 8670 8654 8640 8660 8656 8669 8668 9230 9234 9241 9239 9232 9236 9227 9242 9247 9234 9244 9230 9200 9240 9235 9226 9239 9229 9228 9241 9234 9223 9226 9231 9226 9239 9235 9240 9237 9235 9225 9219 9241 9234 9233 9218 9240 9237 9244 9235 2607 2620 2612 2605 2636 2624 2631 2612 2620 2618 2626 2608 2611 2615 2615 2606 2624 2611 2617 2610 2607 2615 2635 2608 2620 2609 2612 2626 2613 2616 2608 2619 2627 2614 2621 2632 2612 2628 2607 2612
26 7 23 18 9 13 2 15 12 18 7 21 7 24 12 4 23 11 15 5 24 13 5 3227 3244 3232 3229 3240 3237 3239 3250 3241 3237 3225 3252 3222 3244 3237 3238 3243 3245 3229 3259 3218 3247 3248 3239 3241 3243 3244 3242 3243 3239 3235 3238 3240 3232 3251 3236 3248 3258 3230 3243 8645 8635 8636 8635 8621 8644 8629 8638 8607 8651 8632 8628 8624 8665 8651 8641 8649 8629 8628 8634 8614 8635 8645 8641 8646 8637 8635 8629 8637 8638 8626 8638 8635 8653 8637 8623 8643 8639 8652 8651 9215 9219 9227 9224 9217 9222 9212 9227 9232 9219 9229 9215 9186 9225 9220 9211 9224 9214 9214 9226 9220 9208 9211 9216 9211 9224 9220 9225 9222 9220 9210 9204 9226 9220 9218 9203 9225 9222 9229 9220 2609 2622 2614 2608 2638 2626 2633 2615 2623 2620 2628 2610 2613 2617 2617 2609 2626 2613 2619 2612 2609 2618 2637 2610 2623 2611 2615 2628 2615 2618 2610 2622 2629 2617 2623 2634 2614 2631 2609 2614
19 12 8 18 13 28 12 17 15 22 15 20 7 14 25 22 22 24 27 2 13 22 3208 3225 3213 3210 3220 3217 3220 3231 3222 3217 3206 3232 3203 3225 3217 3218 3224 3226 3210 3239 3199 3228 3228 3220 3221 3223 3225 3223 3224 3219 3215 3219 3220 3213 3232 3216 3229 3239 3211 3224 8631 8621 8621 8621 8607 8630 8614 8624 8593 8637 8618 8613 8610 8651 8637 8627 8635 8614 8614 8620 8600 8620 8631 8626 8632 8622 8621 8615 8622 8624 8612 8623 8621 8638 8623 8609 8629 8625 8638 8637 9194 9197 9205 9202 9195 9200 9190 9206 9211 9198 9207 9193 9164 9204 9198 9189 9202 9192 9192 9204 9198 9186 9189 9195 9190 9202 9198 9204 9200 9199 9188 9183 9204 9198 9196 9182 9203 9200 9207 9198 2588 2600 2593 2586 2617 2605 2612 2593 2601 2599 2606 2589 2592 2596 2596 2587 2605 2592 2598 2591 2588 2597 2616 2589 2601 2590 2593 2607 2594 2597 2589 2600 2608 2595 2602 2613 2593 2610 2588 2593
16 11 3 6 9 9 8 14 8 15 2 17 6 7 18 11 12 8 17 6 6 3221 3237 3226 3222 3233 3230 3233 3243 3234 3230 3219 3245 3216 3237 3230 3231 3236 3239 3223 3252 3211 3241 3241 3233 3234 3236 3238 3236 3236 3232 3228 3232 3233 3226 3245 3229 3242 3251 3224 3236 8643 8633 8633 8633 8619 8642 8626 8636 8605 8649 8630 8625 8622 8663 8649 8639 8646 8626 8626 8631 8612 8632 8643 8638 8644 8634 8632 8627 8634 8636 8624 8635 8633 8650 8634 8621 8641 8637 8649 8649 9210 9214 9222 9219 9212 9217 9207 9222 9227 9214 9224 9210 9181 9220 9215 9206 9219 9209 9209 9221 9215 9203 9206 9211 9206 9219 9215 9220 9217 9215 9205 9199 9221 9215 9213 9198 9220 9217 9224 9215 2603 2615 2607 2601 2631 2619 2626 2608 2616 2613 2621 2603 2607 2610 2610 2602 2619 2607 2612 2605 2602 2611 2630 2603 2616 2604 2608 2621 2608 2611 2603 2615 2623 2610 2617 2627 2607 2624 2603 2607
12 14 13 24 16 20 21 22 4 16 5 14 21 10 25 15 22 12 11 22 3205 3221 3210 3206 3217 3214 3217 3228 3218 3214 3203 3229 3200 3221 3214 3215 3220 3223 3207 3236 3196 3225 3225 3217 3218 3220 3222 3220 3220 3216 3212 3216 3217 3210 3229 3213 3226 3235 3208 3221 8643 8633 8633 8633 8619 8642 8626 8636 8605 8649 8630 8625 8622 8663 8649 8639 8647 8626 8626 8631 8612 8632 8643 8638 8644 8634 8632 8627 8634 8636 8624 8635 8633 8650 8634 8621 8641 8637 8650 8649 9204 9208 9215 9213 9206 9210 9200 9216 9221 9208 9217 9203 9174 9214 9209 9199 9213 9202 9202 9214 9208 9197 9200 9205 9200 9212 9208 9214 9210 9209 9198 9193 9215 9208 9206 9192 9214 9210 9218 9208 2587 2599 2591 2585 2615 2603 2610 2592 2600 2597 2605 2587 2591 2594 2594 2586 2603 2590 2596 2589 2586 2595 2614 2587 2600 2588 2592 2605 2592 2595 2587 2599 2606 2594 2601 2611 2591 2608 2586 2591
10 5 20 4 9 10 14 13 12 9 5 17 20 14 19 19 6 5 14 3215 3231 3219 3216 3227 3224 3226 3237 3228 3224 3213 3239 3209 3231 3224 3225 3230 3233 3217 3246 3205 3235 3235 3227 3228 3230 3232 3229 3230 3226 3222 3226 3227 3220 3238 3223 3236 3245 3218 3230 8635 8625 8625 8625 8611 8634 8618 8628 8597 8641 8622 8617 8614 8655 8641 8631 8639 8618 8618 8623 8604 8624 8635 8630 8636 8626 8624 8619 8626 8628 8616 8627 8625 8642 8626 8613 8633 8629 8642 8641 9200 9204 9211 9209 9202 9206 9197 9212 9217 9204 9214 9200 9170 9210 9205 9196 9209 9199 9198 9211 9204 9193 9196 9201 9196 9209 9205 9210 9207 9205 9195 9189 9211 9204 9203 9188 9210 9207 9214 9205 2595 2608 2600 2594 2624 2612 2619 2601 2609 2606 2614 2596 2599 2603 2603 2595 2612 2599 2605 2598 2595 2604 2623 2596 2609 2597 2601 2614 2601 2604 2596 2608 2615 2603 2609 2620 2600 2617 2595 2600
6 11 10 10 15 10 12 2 15 6 7 16 14 10 9 16 5 9 3218 3235 3223 3220 3231 3227 3230 3241 3232 3228 3216 3243 3213 3235 3228 3229 3234 3236 3220 3250 3209 3238 3239 3230 3232 3234 3235 3233 3234 3230 3226 3229 3231 3223 3242 3227 3239 3249 3221 3234 8644 8634 8634 8634 8620 8643 8627 8637 8606 8650 8631 8627 8623 8664 8650 8640 8648 8627 8627 8633 8613 8633 8644 8639 8645 8635 8634 8628 8635 8637 8625 8637 8634 8651 8636 8622 8642 8638 8651 8650 9210 9214 9222 9219 9212 9217 9207 9222 9228 9215 9224 9210 9181 9221 9215 9206 9219 9209 9209 9221 9215 9203 9206 9212 9207 9219 9215 9221 9217 9216 9205 9199 9221 9215 9213 9198 9220 9217 9224 9215 2600 2613 2605 2598 2629 2617 2624 2605 2613 2611 2618 2601 2604 2608 2608 2599 2617 2604 2610 2603 2600 2608 2628 2601 2613 2602 2605 2619 2606 2609 2601 2612 2620 2607 2614 2625 2605 2622 2600 2605
15 4 7 10 10 13 8 12 2 13 18 12 15 14 10 2 10 3217 3234 3222 3219 3230 3226 3229 3240 3231 3227 3215 3242 3212 3234 3227 3228 3233 3235 3219 3249 3208 3237 3238 3229 3231 3233 3234 3232 3233 3229 3225 3228 3230 3222 3241 3226 3238 3248 3220 3233 8638 8628 8629 8628 8614 8637 8622 8631 8600 8644 8625 8621 8617 8658 8644 8634 8642 8621 8621 8627 8607 8628 8638 8634 8639 8629 8628 8622 8629 8631 8619 8631 8628 8645 8630 8616 8636 8632 8645 8644 9204 9208 9216 9213 9206 9211 9201 9216 9221 9208 9218 9204 9175 9214 9209 9200 9213 9203 9203 9215 9209 9197 9200 9205 9200 9213 9209 9214 9211 9209 9199 9193 9215 9209 9207 9192 9214 9211 9218 9209 2598 2611 2603 2597 2627 2615 2622 2604 2612 2609 2617 2599 2602 2606 2606 2598 2615 2602 2608 2601 2598 2607 2626 2599 2612 2600 2604 2617 2604 2607 2599 2611 2618 2606 2613 2623 2603 2620 2598 2603
17 14 20 10 22 8 25 14 4 23 13 14 3 26 15 7 3228 3244 3232 3229 3240 3237 3239 3250 3241 3237 3226 3252 3222 3244 3237 3238 3243 3245 3230 3259 3218 3248 3248 3240 3241 3243 3245 3242 3243 3239 3235 3239 3240 3233 3251 3236 3249 3258 3231 3243 8647 8637 8638 8638 8624 8647 8631 8640 8610 8653 8635 8630 8626 8668 8653 8643 8651 8631 8631 8636 8617 8637 8647 8643 8649 8639 8637 8631 8639 8640 8628 8640 8637 8655 8639 8625 8645 8641 8654 8653 9218 9221 9229 9227 9220 9224 9214 9230 9235 9222 9231 9217 9188 9228 9223 9213 9227 9216 9216 9228 9222 9210 9214 9219 9214 9226 9222 9228 9224 9223 9212 9207 9229 9222 9220 9206 9228 9224 9231 9222 2610 2622 2615 2608 2639 2627 2634 2615 2623 2621 2628 2611 2614 2618 2618 2609 2627 2614 2620 2612 2610 2618 2638 2611 2623 2612 2615 2629 2615 2619 2610 2622 2630 2617 2624 2635 2615 2631 2610 2615
5 6 10 16 11 13 4 16 22 10 19 17 9 6 11 3219 3235 3224 3220 3231 3228 3231 3241 3232 3228 3217 3243 3214 3235 3228 3229 3234 3237 3221 3250 3209 3239 3239 3231 3232 3234 3236 3234 3234 3230 3226 3230 3231 3224 3243 3227 3240 3249 3222 3234 8634 8624 8624 8624 8610 8633 8617 8627 8596 8640 8621 8617 8613 8654 8640 8630 8638 8617 8617 8623 8603 8623 8634 8629 8635 8625 8624 8618 8625 8627 8615 8627 8624 8641 8626 8612 8632 8628 8641 8640 9201 9205 9212 9210 9203 9207 9197 9213 9218 9205 9215 9201 9171 9211 9206 9196 9210 9199 9199 9211 9205 9194 9197 9202 9197 9209 9205 9211 9208 9206 9195 9190 9212 9205 9203 9189 9211 9207 9215 9205 2599 2612 2604 2598 2628 2616 2623 2605 2613 2610 2618 2600 2603 2607 2607 2599 2616 2603 2609 2602 2599 2608 2627 2600 2613 2601 2605 2618 2605 2608 2600 2612 2619 2607 2614 2624 2604 2621 2599 2604
6 5 20 10 18 5 14 25 5 20 15 15 8 7 3224 3240 3229 3225 3236 3233 3236 3246 3237 3233 3222 3248 3219 3240 3233 3234 3239 3242 3226 3255 3214 3244 3244 3236 3237 3239 3241 3238 3239 3235 3231 3235 3236 3229 3248 3232 3245 3254 3227 3239 8634 8625 8625 8625 8611 8634 8618 8627 8597 8641 8622 8617 8613 8655 8641 8630 8638 8618 8618 8623 8604 8624 8635 8630 8636 8626 8624 8618 8626 8628 8616 8627 8625 8642 8626 8613 8633 8628 8641 8641 9204 9207 9215 9213 9206 9210 9200 9216 9221 9208 9217 9203 9174 9214 9209 9199 9213 9202 9202 9214 9208 9196 9200 9205 9200 9212 9208 9214 9210 9209 9198 9193 9215 9208 9206 9192 9214 9210 9217 9208 2605 2617 2609 2603 2633 2621 2629 2610 2618 2615 2623 2605 2609 2612 2612 2604 2621 2609 2614 2607 2604 2613 2632 2605 2618 2606 2610 2623 2610 2613 2605 2617 2624 2612 2619 2629 2609 2626 2605 2609
11 23 16 19 9 19 29 8 25 21 13 12 13 3223 3240 3228 3225 3236 3232 3235 3246 3237 3232 3221 3247 3218 3240 3232 3233 3239 3241 3225 3254 3214 3243 3243 3235 3236 3238 3240 3238 3239 3234 3230 3234 3235 3228 3247 3231 3244 3254 3226 3239 8629 8619 8619 8619 8605 8628 8612 8622 8591 8635 8616 8612 8608 8649 8635 8625 8633 8612 8612 8618 8598 8618 8629 8624 8630 8620 8619 8613 8620 8622 8610 8622 8619 8636 8621 8607 8627 8623 8636 8635 9198 9202 9209 9207 9200 9204 9194 9210 9215 9202 9211 9197 9168 9208 9203 9193 9207 9196 9196 9208 9202 9191 9194 9199 9194 9206 9202 9208 9204 9203 9192 9187 9209 9202 9200 9186 9208 9204 9212 9202 2603 2615 2608 2601 2632 2620 2627 2608 2616 2614 2621 2604 2607 2611 2611 2602 2620 2607 2613 2606 2603 2612 2631 2604 2616 2605 2608 2622 2609 2612 2603 2615 2623 2610 2617 2628 2608 2625 2603 2608
22 9 22 8 10 26 4 19 11 19 11 3 3227 3244 3232 3229 3240 3236 3239 3250 3241 3237 3225 3252 3222 3244 3237 3238 3243 3245 3229 3259 3218 3247 3248 3239 3241 3243 3244 3242 3243 3239 3235 3238 3240 3232 3251 3236 3248 3258 3230 3243 8638 8628 8628 8628 8614 8637 8621 8631 8600 8644 8625 8621 8617 8658 8644 8634 8642 8621 8621 8627 8607 8627 8638 8633 8639 8629 8628 8622 8629 8631 8619 8631 8628 8645 8630 8616 8636 8632 8645 8644 9208 9212 9220 9217 9210 9215 9205 9220 9225 9212 9222 9208 9179 9218 9213 9204 9217 9207 9207 9219 9213 9201 9204 9209 9204 9217 9213 9218 9215 9213 9203 9197 9219 9213 9211 9196 9218 9215 9222 9213 2608 2621 2613 2607 2637 2625 2632 2614 2622 2619 2627 2609 2612 2616 2616 2608 2625 2612 2618 2611 2608 2617 2636 2609 2622 2610 2614 2627 2614 2617 2609 2621 2628 2616 2623 2633 2613 2630 2608 2613
14 8 15 18 7 25 12 19 15 11 21 3206 3223 3211 3208 3219 3215 3218 3229 3220 3215 3204 3230 3201 3223 3215 3216 3222 3224 3208 3237 3197 3226 3226 3218 3219 3221 3223 3221 3222 3217 3214 3217 3218 3211 3230 3214 3227 3237 3209 3222 8646 8636 8637 8636 8622 8645 8630 8639 8608 8652 8633 8629 8625 8666 8652 8642 8650 8630 8629 8635 8615 8636 8646 8642 8647 8638 8636 8630 8637 8639 8627 8639 8636 8653 8638 8624 8644 8640 8653 8652 9208 9211 9219 9217 9209 9214 9204 9220 9225 9212 9221 9207 9178 9218 9212 9203 9217 9206 9206 9218 9212 9200 9204 9209 9204 9216 9212 9218 9214 9213 9202 9197 9219 9212 9210 9196 9217 9214 9221 9212 2588 2601 2593 2586 2617 2605 2612 2593 2601 2599 2606 2589 2592 2596 2596 2587 2605 2592 2598 2591 2588 2596 2616 2589 2601 2590 2593 2607 2594 2597 2588 2600 2608 2595 2602 2613 2593 2609 2588 2593
17 8 5 17 13 10 7 18 7 7 3220 3237 3225 3222 3233 3230 3232 3243 3234 3230 3218 3245 3215 3237 3230 3231 3236 3238 3223 3252 3211 3240 3241 3232 3234 3236 3237 3235 3236 3232 3228 3232 3233 3225 3244 3229 3241 3251 3223 3236 8645 8635 8635 8635 8621 8644 8628 8638 8607 8651 8632 8627 8624 8665 8651 8641 8648 8628 8628 8633 8614 8634 8645 8640 8646 8636 8634 8629 8636 8638 8626 8637 8635 8652 8636 8623 8643 8639 8651 8651 9212 9216 9223 9221 9214 9218 9209 9224 9229 9216 9226 9212 9182 9222 9217 9208 9221 9211 9210 9223 9216 9205 9208 9213 9208 9221 9217 9222 9219 9217 9206 9201 9223 9216 9215 9200 9222 9219 9226 9217 2602 2615 2607 2600 2631 2619 2626 2608 2616 2613 2621 2603 2606 2610 2610 2602 2619 2606 2612 2605 2602 2611 2630 2603 2616 2604 2608 2621 2608 2611 2603 2615 2622 2610 2616 2627 2607 2624 2602 2607
13 22 15 24 19 24 7 11 22 3206 3222 3210 3207 3218 3215 3217 3228 3219 3215 3204 3230 3200 3222 3215 3216 3221 3223 3208 3237 3196 3226 3226 3218 3219 3221 3223 3220 3221 3217 3213 3217 3218 3211 3229 3214 3227 3236 3209 3221 8638 8628 8628 8628 8614 8637 8621 8631 8600 8644 8625 8620 8617 8658 8644 8634 8642 8621 8621 8627 8607 8627 8638 8633 8639 8629 8628 8622 8629 8631 8619 8630 8628 8645 8630 8616 8636 8632 8645 8644 9199 9203 9211 9208 9201 9206 9196 9211 9217 9204 9213 9199 9170 9210 9204 9195 9208 9198 9198 9210 9204 9192 9195 9200 9196 9208 9204 9209 9206 9204 9194 9188 9210 9204 9202 9187 9209 9206 9213 9204 2587 2599 2591 2585 2615 2603 2611 2592 2600 2597 2605 2587 2591 2595 2594 2586 2603 2591 2596 2589 2586 2595 2614 2587 2600 2588 2592 2605 2592 2595 2587 2599 2607 2594 2601 2611 2591 2608 2587 2591
12 20 10 16 14 12 3 9 3219 3236 3224 3221 3231 3228 3231 3242 3232 3228 3217 3243 3214 3235 3228 3229 3235 3237 3221 3250 3210 3239 3239 3231 3232 3234 3236 3234 3234 3230 3226 3230 3231 3224 3243 3227 3240 3249 3222 3235 8637 8628 8628 8628 8614 8637 8621 8630 8600 8644 8625 8620 8616 8658 8644 8633 8641 8621 8621 8626 8607 8627 8637 8633 8639 8629 8627 8621 8629 8631 8619 8630 8628 8645 8629 8616 8636 8631 8644 8644 9205 9208 9216 9213 9206 9211 9201 9217 9222 9209 9218 9204 9175 9215 9209 9200 9213 9203 9203 9215 9209 9197 9200 9206 9201 9213 9209 9215 9211 9210 9199 9194 9216 9209 9207 9193 9214 9211 9218 9209 2600 2612 2605 2598 2629 2617 2624 2605 2613 2611 2618 2601 2604 2608 2607 2599 2617 2604 2610 2603 2600 2608 2628 2601 2613 2602 2605 2619 2605 2609 2600 2612 2620 2607 2614 2625 2605 2621 2600 2605
20 14 10 1 23 13 8 3224 3240 3229 3225 3236 3233 3236 3246 3237 3233 3222 3248 3219 3240 3233 3234 3239 3242 3226 3255 3215 3244 3244 3236 3237 3239 3241 3239 3239 3235 3231 3235 3236 3229 3248 3232 3245 3254 3227 3239 8648 8638 8639 8638 8624 8647 8632 8641 8610 8654 8635 8631 8627 8668 8654 8644 8652 8631 8631 8637 8617 8638 8648 8644 8649 8639 8638 8632 8639 8641 8629 8641 8638 8655 8640 8626 8646 8642 8655 8654 9217 9221 9228 9226 9219 9223 9213 9229 9234 9221 9230 9216 9187 9227 9222 9212 9226 9215 9215 9227 9221 9209 9213 9218 9213 9225 9221 9227 9223 9222 9211 9206 9228 9221 9219 9205 9227 9223 9230 9221 2606 2619 2611 2604 2635 2623 2630 2612 2620 2617 2625 2607 2610 2614 2614 2606 2623 2610 2616 2609 2606 2615 2634 2607 2620 2608 2612 2625 2612 2615 2607 2619 2626 2614 2620 2631 2611 2628 2606 2611
29 10 20 22 17 24 3204 3221 3209 3206 3217 3214 3216 3227 3218 3214 3202 3229 3199 3221 3214 3215 3220 3222 3207 3236 3195 3225 3225 3216 3218 3220 3222 3219 3220 3216 3212 3216 3217 3210 3228 3213 3225 3235 3208 3220 8653 8643 8644 8643 8629 8652 8637 8646 8615 8659 8640 8636 8632 8673 8659 8649 8657 8636 8636 8642 8622 8643 8653 8649 8654 8644 8643 8637 8644 8646 8634 8646 8643 8660 8645 8631 8651 8647 8660 8659 9214 9217 9225 9223 9216 9220 9210 9226 9231 9218 9227 9213 9184 9224 9219 9209 9223 9212 9212 9224 9218 9206 9210 9215 9210 9222 9218 9224 9220 9219 9208 9203 9225 9218 9216 9202 9224 9220 9227 9218 2587 2600 2592 2585 2616 2604 2611 2593 2601 2598 2606 2588 2591 2595 2595 2587 2604 2591 2597 2590 2587 2596 2615 2588 2601 2589 2593 2606 2593 2596 2588 2600 2607 2595 2601 2612 2592 2609 2587 2592
23 15 20 13 7 3229 3246 3234 3231 3242 3238 3241 3252 3243 3238 3227 3253 3224 3246 3238 3239 3245 3247 3231 3260 3220 3249 3249 3241 3243 3245 3246 3244 3245 3240 3237 3240 3241 3234 3253 3237 3250 3260 3232 3245 8634 8624 8624 8624 8610 8633 8617 8627 8596 8640 8621 8617 8613 8654 8640 8630 8638 8617 8617 8623 8603 8624 8634 8629 8635 8625 8624 8618 8625 8627 8615 8627 8624 8641 8626 8612 8632 8628 8641 8640 9205 9209 9216 9214 9207 9211 9202 9217 9222 9209 9219 9205 9175 9215 9210 9201 9214 9204 9203 9216 9210 9198 9201 9206 9201 9214 9210 9215 9212 9210 9200 9194 9216 9210 9208 9193 9215 9212 9219 9210 2610 2622 2614 2608 2639 2627 2634 2615 2623 2621 2628 2611 2614 2618 2617 2609 2627 2614 2620 2612 2609 2618 2638 2610 2623 2612 2615 2629 2615 2618 2610 2622 2630 2617 2624 2635 2615 2631 2610 2614
11 23 14 17 3214 3231 3219 3216 3227 3223 3226 3237 3228 3223 3212 3238 3209 3231 3223 3224 3230 3232 3216 3245 3205 3234 3234 3226 3227 3230 3231 3229 3229 3225 3222 3225 3226 3219 3238 3222 3235 3245 3217 3230 8653 8643 8644 8643 8629 8652 8637 8646 8615 8659 8640 8636 8632 8673 8659 8649 8657 8637 8636 8642 8622 8643 8653 8649 8654 8645 8643 8637 8645 8646 8634 8646 8643 8660 8645 8631 8651 8647 8660 8659 9218 9222 9229 9227 9220 9224 9214 9230 9235 9222 9231 9217 9188 9228 9223 9213 9227 9216 9216 9228 9222 9210 9214 9219 9214 9226 9222 9228 9224 9223 9212 9207 9229 9222 9220 9206 9228 9224 9231 9222 2597 2610 2602 2595 2626 2614 2621 2602 2610 2608 2615 2598 2601 2605 2605 2596 2614 2601 2607 2600 2597 2605 2625 2598 2610 2599 2602 2616 2602 2606 2597 2609 2617 2604 2611 2622 2602 2618 2597 2602
25 14 9 3224 3241 3229 3226 3237 3234 3236 3247 3238 3234 3222 3249 3219 3241 3234 3235 3240 3242 3227 3256 3215 3245 3245 3236 3238 3240 3242 3239 3240 3236 3232 3236 3237 3230 3248 3233 3245 3255 3228 3240 8649 8639 8640 8639 8625 8648 8633 8642 8611 8655 8636 8632 8628 8669 8655 8645 8653 8632 8632 8638 8618 8639 8649 8645 8650 8641 8639 8633 8641 8642 8630 8642 8639 8656 8641 8627 8647 8643 8656 8655 9218 9222 9229 9227 9220 9224 9215 9230 9235 9222 9232 9218 9188 9228 9223 9214 9227 9216 9216 9229 9222 9211 9214 9219 9214 9227 9223 9228 9225 9223 9212 9207 9229 9222 9221 9206 9228 9225 9232 9223 2607 2620 2612 2605 2636 2624 2631 2612 2620 2618 2625 2608 2611 2615 2615 2606 2624 2611 2617 2610 2607 2615 2635 2608 2620 2609 2612 2626 2612 2616 2607 2619 2627 2614 2621 2632 2612 2628 2607 2612
11 20 3210 3227 3215 3212 3223 3219 3222 3233 3224 3220 3208 3235 3205 3227 3219 3220 3226 3228 3212 3242 3201 3230 3230 3222 3224 3226 3227 3225 3226 3221 3218 3221 3222 3215 3234 3219 3231 3241 3213 3226 8631 8621 8622 8622 8608 8631 8615 8624 8594 8638 8619 8614 8610 8652 8638 8627 8635 8615 8615 8620 8601 8621 8631 8627 8633 8623 8621 8615 8623 8625 8612 8624 8622 8639 8623 8610 8630 8625 8638 8638 9195 9199 9206 9204 9197 9201 9192 9207 9212 9199 9209 9195 9165 9205 9200 9191 9204 9193 9193 9206 9199 9188 9191 9196 9191 9204 9200 9205 9202 9200 9189 9184 9206 9199 9197 9183 9205 9201 9209 9200 2590 2603 2595 2589 2619 2607 2614 2596 2604 2601 2609 2591 2594 2598 2598 2590 2607 2594 2600 2593 2590 2599 2618 2591 2604 2592 2596 2609 2596 2599 2591 2603 2610 2598 2605 2615 2595 2612 2590 2595
11 3216 3233 3221 3218 3229 3225 3228 3239 3230 3226 3214 3241 3211 3233 3225 3226 3232 3234 3218 3247 3207 3236 3236 3228 3230 3232 3233 3231 3232 3227 3224 3227 3228 3221 3240 3224 3237 3247 3219 3232 8639 8629 8630 8629 8616 8638 8623 8632 8602 8645 8626 8622 8618 8659 8645 8635 8643 8623 8623 8628 8609 8629 8639 8635 8641 8631 8629 8623 8631 8632 8620 8632 8629 8647 8631 8617 8637 8633 8646 8645 9205 9209 9216 9214 9207 9211 9202 9217 9222 9209 9219 9205 9175 9215 9210 9201 9214 9204 9203 9216 9209 9198 9201 9206 9201 9214 9210 9215 9212 9210 9200 9194 9216 9209 9208 9193 9215 9212 9219 9210 2597 2610 2602 2596 2626 2614 2621 2603 2611 2608 2616 2598 2601 2605 2605 2597 2614 2601 2607 2600 2597 2606 2625 2598 2611 2599 2603 2616 2603 2606 2598 2610 2617 2605 2612 2622 2602 2619 2597 2602
3227 3243 3232 3228 3239 3236 3239 3249 3240 3236 3225 3251 3222 3243 3236 3237 3242 3245 3229 3258 3217 3247 3247 3239 3240 3242 3244 3241 3242 3238 3234 3238 3239 3232 3251 3235 3248 3257 3230 3242 8640 8630 8631 8631 8617 8640 8624 8633 8603 8646 8628 8623 8619 8661 8646 8636 8644 8624 8624 8629 8610 8630 8640 8636 8642 8632 8630 8624 8632 8634 8621 8633 8631 8648 8632 8619 8639 8634 8647 8646 9211 9214 9222 9219 9212 9217 9207 9223 9228 9215 9224 9210 9181 9221 9215 9206 9219 9209 9209 9221 9215 9203 9206 9212 9207 9219 9215 9221 9217 9216 9205 9200 9221 9215 9213 9199 9220 9217 9224 9215 2608 2621 2613 2606 2637 2625 2632 2614 2622 2619 2627 2609 2612 2616 2616 2608 2625 2612 2618 2611 2608 2617 2636 2609 2622 2610 2614 2627 2614 2617 2609 2621 2628 2616 2622 2633 2613 2630 2608 2613
17 5 4 14 29 12 23 15 10 4 28 12 17 11 11 16 19 23 34 24 21 21 12 14 19 20 20 21 12 12 11 19 13 25 16 21 31 9 16 9649 9632 9634 9634 9617 9639 9631 9638 9609 9649 9629 9622 9624 9660 9646 9643 9646 9636 9625 9630 9613 9630 9643 9637 9642 9633 9632 9628 9634 9634 9622 9631 9635 9645 9637 9620 9637 9637 9647 9653 8894 8898 8906 8906 8894 8903 8889 8900 8911 8899 8911 8893 8860 8902 8903 8885 8906 8893 8891 8906 8894 8886 8892 8897 8889 8909 8897 8903 8902 8905 8892 8884 8903 8898 8893 8879 8904 8898 8907 8896 721 716 716 713 687 699 698 711 712 704 712 718 719 719 716 716 703 709 719 714 733 703 698 714 703 710 709 701 708 717 716 709 710 712 701 697 704 694 719 723
12 15 6 28 5 9 9 8 19 15 24 2 10 7 5 8 26 19 33 8 5 6 4 10 10 13 15 6 12 6 15 16 10 16 6 15 16 2 9656 9639 9641 9641 9624 9646 9639 9645 9617 9656 9636 9629 9631 9667 9653 9650 9653 9643 9632 9637 9621 9637 9650 9644 9649 9640 9639 9635 9641 9641 9629 9639 9642 9652 9644 9627 9644 9644 9654 9660 8895 8898 8907 8907 8895 8903 8890 8901 8912 8900 8911 8894 8861 8903 8903 8886 8907 8894 8891 8906 8895 8886 8893 8898 8890 8910 8898 8903 8903 8906 8892 8885 8904 8899 8893 8879 8905 8899 8908 8897 736 731 731 728 702 713 712 726 726 718 726 733 734 734 731 730 717 724 733 728 747 718 712 729 717 724 724 716 723 731 731 724 724 726 715 711 718 708 734 737
5 9 28 7 19 12 6 8 24 14 12 7 6 12 15 23 29 26 17 16 8 9 15 16 17 18 7 9 7 16 11 20 14 17 26 8 11 9651 9634 9636 9636 9619 9641 9633 9640 9611 9651 9631 9624 9626 9662 9648 9644 9648 9638 9627 9632 9615 9632 9645 9639 9644 9635 9634 9630 9636 9636 9624 9633 9637 9647 9639 9621 9639 9639 9649 9655 8894 8898 8906 8906 8894 8903 8889 8900 8911 8899 8911 8893 8860 8902 8903 8885 8906 8893 8891 8906 8895 8886 8892 8897 8889 8909 8897 8903 8902 8905 8892 8884 8903 8898 8893 8879 8904 8898 8907 8896 726 720 721 718 691 703 702 716 716 708 716 722 723 724 720 720 707 713 723 718 737 708 702 718 707 714 713 705 712 721 720 713 714 716 705 701 708 698 723 727
11 25 10 23 16 11 4 25 10 16 12 9 16 20 19 34 21 22 19 13 13 15 17 16 23 10 8 11 15 8 23 19 21 30 5 15 9646 9629 9631 9631 9614 9636 9629 9635 9607 9647 9626 9620 9621 9658 9643 9640 9644 9633 9622 9628 9611 9627 9641 9634 9639 9631 9630 9625 9631 9631 9620 9629 9633 9643 9634 9617 9635 9634 9645 9650 8890 8894 8903 8902 8890 8899 8885 8896 8907 8895 8907 8889 8856 8898 8899 8881 8903 8889 8887 8902 8891 8882 8888 8893 8885 8906 8894 8899 8898 8901 8888 8881 8899 8894 8889 8875 8900 8894 8903 8892 721 716 716 713 687 698 697 711 711 703 712 718 719 719 716 716 702 709 718 714 733 703 698 714 703 710 709 701 708 716 716 709 710 711 700 697 703 693 719 723
23 3 15 13 9 15 15 19 7 11 3 10 13 21 25 27 14 8 8 6 6 7 9 20 2 6 7 10 10 12 19 12 21 10 7 9650 9633 9635 9635 9618 9640 9633 9639 9611 9651 9630 9624 9625 9662 9647 9644 9648 9637 9626 9632 9615 9631 9645 9638 9643 9635 9634 9629 9635 9635 9624 9633 9637 9647 9638 9621 9639 9638 9649 9654 8890 8894 8902 8902 8890 8899 8885 8896 8907 8895 8907 8889 8856 8898 8899 8881 8902 8889 8887 8901 8890 8882 8888 8893 8885 8905 8893 8899 8898 8901 8887 8880 8899 8894 8889 8875 8900 8894 8903 8892 730 725 725 722 696 707 706 720 720 713 721 727 728 728 725 725 712 718 727 723 742 712 707 723 712 719 718 710 717 725 725 718 719 721 710 706 713 702 728 732
26 36 36 31 26 21 23 30 33 25 32 36 9 45 19 37 26 31 29 19 19 15 43 25 19 30 13 17 25 41 33 39 20 30 9628 9611 9614 9613 9597 9618 9611 9617 9589 9629 9608 9602 9603 9640 9626 9622 9626 9615 9604 9610 9593 9609 9623 9617 9621 9613 9612 9608 9613 9613 9602 9611 9615 9625 9616 9599 9617 9617 9627 9632 8867 8871 8879 8879 8867 8876 8862 8873 8884 8872 8884 8866 8833 8875 8876 8858 8879 8866 8864 8879 8867 8859 8865 8870 8862 8882 8870 8876 8875 8878 8865 8857 8876 8871 8866 8852 8877 8871 8880 8869 717 712 712 710 683 695 693 708 707 700 707 714 715 715 712 712 699 706 714 710 728 700 693 710 699 706 705 697 704 712 712 705 705 708 697 693 700 690 715 718
13 10 6 14 17 19 6 8 2 7 11 23 24 29 12 9 5 4 9 10 12 17 1 8 4 13 12 13 16 10 20 11 5 9652 9635 9637 9637 9621 9642 9635 9641 9613 9653 9632 9626 9627 9664 9650 9646 9650 9639 9628 9634 9617 9633 9647 9641 9645 9637 9636 9632 9637 9637 9626 9635 9639 9649 9640 9623 9641 9641 9651 9656 8893 8896 8905 8905 8893 8901 8888 8899 8910 8898 8910 8892 8859 8901 8902 8884 8905 8892 8889 8904 8893 8885 8891 8896 8888 8908 8896 8902 8901 8904 8890 8883 8902 8897 8891 8877 8903 8897 8906 8895 731 726 726 723 697 708 707 721 721 713 721 728 729 729 726 725 712 719 728 723 742 713 707 724 712 719 719 711 718 726 726 719 719 721 710 706 713 703 729 732
9 13 26 19 32 8 13 15 7 5 35 11 42 3 10 11 10 17 17 20 12 14 21 12 23 24 13 17 3 8 24 8 9664 9647 9649 9649 9632 9654 9647 9653 9625 9665 9644 9638 9639 9675 9661 9658 9662 9651 9640 9645 9629 9645 9658 9652 9657 9648 9648 9643 9649 9649 9637 9647 9651 9661 9652 9635 9652 9652 9662 9668 8901 8905 8914 8913 8901 8910 8896 8907 8918 8906 8918 8900 8867 8909 8910 8892 8914 8900 8898 8913 8902 8893 8899 8904 8896 8916 8905 8910 8909 8912 8899 8892 8910 8905 8900 8886 8911 8905 8914 8903 744 739 739 736 710 721 720 734 734 726 734 741 742 742 739 739 725 732 741 737 756 726 720 737 726 733 732 724 731 739 739 732 733 734 723 720 726 716 742 745
6 19 24 26 7 5 11 4 4 32 18 37 7 14 4 6 18 18 21 7 11 17 6 22 21 18 8 9 17 19 6 9662 9644 9647 9647 9630 9651 9644 9651 9622 9662 9642 9635 9637 9673 9659 9655 9659 9649 9638 9643 9626 9643 9656 9650 9655 9646 9645 9641 9646 9646 9635 9644 9648 9658 9650 9632 9650 9650 9660 9666 8903 8906 8915 8914 8903 8911 8898 8909 8919 8908 8919 8901 8868 8911 8911 8894 8915 8901 8899 8914 8903 8894 8901 8905 8898 8918 8906 8911 8910 8913 8900 8893 8912 8906 8901 8887 8912 8906 8915 8905 737 732 732 729 703 714 713 727 727 719 727 733 735 735 732 731 718 725 734 729 749 719 713 730 718 725 725 717 723 732 732 725 726 727 716 712 719 709 735 738
14 23 20 8 2 7 6 9 27 23 32 11 14 3 5 15 16 18 12 7 13 3 19 16 18 10 12 21 14 7 9656 9639 9642 9641 9625 9646 9639 9645 9617 9657 9636 9630 9631 9668 9654 9650 9654 9643 9632 9638 9621 9637 9651 9645 9649 9641 9640 9636 9641 9641 9630 9639 9643 9653 9644 9627 9645 9645 9655 9660 8899 8902 8911 8910 8898 8907 8894 8904 8915 8904 8915 8897 8864 8906 8907 8889 8911 8897 8895 8910 8899 8890 8897 8901 8894 8914 8902 8907 8906 8909 8896 8889 8907 8902 8897 8883 8908 8902 8911 8901 731 726 726 723 697 709 708 722 722 714 722 728 729 729 726 726 713 719 729 724 743 713 708 724 713 720 719 711 718 727 726 719 720 722 711 707 714 704 729 733
28 7 19 15 12 19 23 19 37 19 25 22 16 16 19 20 19 25 13 11 14 18 10 26 20 24 34 7 19 9644 9627 9630 9629 9613 9634 9627 9633 9605 9645 9624 9618 9619 9656 9642 9638 9642 9631 9620 9626 9609 9625 9639 9633 9637 9629 9628 9624 9629 9629 9618 9627 9631 9641 9632 9615 9633 9633 9643 9648 8890 8894 8902 8902 8890 8899 8885 8896 8907 8895 8907 8889 8856 8898 8899 8881 8902 8889 8887 8901 8890 8882 8888 8893 8885 8905 8893 8899 8898 8901 8887 8880 8899 8894 8889 8875 8900 8894 8903 8892 718 713 713 710 683 695 694 708 708 700 708 714 715 716 713 712 699 706 715 710 729 700 694 711 699 706 705 698 704 713 712 706 706 708 697 693 700 690 715 719
30 17 25 18 20 22 24 27 35 21 10 21 19 10 8 10 30 17 18 20 12 19 6 32 17 20 22 18 9648 9631 9633 9633 9616 9638 9630 9637 9608 9648 9628 9621 9623 9659 9645 9642 9645 9635 9624 9629 9612 9629 9642 9636 9641 9632 9631 9627 9633 9633 9621 9630 9634 9644 9636 9618 9636 9636 9646 9652 8882 8886 8895 8894 8882 8891 8877 8888 8899 8887 8899 8881 8848 8890 8891 8873 8895 8881 8879 8894 8883 8874 8880 8885 8877 8898 8886 8891 8890 8893 8880 8873 8891 8886 8881 8867 8892 8886 8895 8884 737 731 732 729 703 714 713 727 727 720 727 734 735 735 732 732 718 725 734 730 748 719 713 730 719 726 725 717 724 732 732 725 725 727 717 712 720 709 735 738
25 22 17 25 29 14 43 12 31 26 22 22 21 22 20 32 18 13 21 18 10 29 28 29 39 9 24 9637 9620 9622 9622 9605 9627 9620 9626 9598 9638 9617 9611 9612 9649 9634 9631 9635 9624 9613 9619 9602 9618 9632 9625 9630 9622 9621 9616 9622 9622 9611 9620 9624 9634 9625 9608 9626 9625 9636 9641 8883 8887 8895 8895 8883 8892 8878 8889 8900 8888 8900 8882 8849 8891 8892 8874 8896 8882 8880 8895 8884 8875 8881 8886 8878 8898 8886 8892 8891 8894 8881 8873 8892 8887 8882 8868 8893 8887 8896 8885 712 707 707 704 678 689 688 702 702 694 702 709 710 710 707 706 693 700 709 705 724 694 688 705 693 701 700 692 699 707 707 700 701 702 691 688 694 684 710 713
9 7 3 6 28 18 34 7 7 5 3 11 12 14 14 7 13 5 16 17 11 15 5 15 16 1 9657 9640 9642 9642 9626 9647 9640 9646 9618 9658 9637 9631 9632 9669 9655 9651 9655 9644 9633 9639 9622 9638 9652 9646 9650 9642 9641 9636 9642 9642 9631 9640 9644 9654 9645 9628 9646 9646 9656 9661 8896 8900 8909 8908 8896 8905 8891 8902 8913 8901 8913 8895 8862 8904 8905 8887 8909 8895 8893 8908 8897 8888 8894 8899 8891 8912 8900 8905 8904 8907 8894 8887 8905 8900 8895 8881 8906 8900 8909 8898 736 731 732 729 702 714 713 727 727 719 727 733 734 734 731 731 718 725 734 729 748 719 713 729 718 725 724 716 723 732 731 724 725 727 716 712 719 709 734 738
9 6 9 29 23 33 11 15 4 6 17 18 20 11 9 15 4 21 18 20 8 12 21 15 8 9658 9641 9643 9643 9626 9648 9641 9647 9619 9659 9638 9632 9633 9670 9655 9652 9656 9645 9634 9640 9623 9639 9653 9646 9651 9643 9642 9637 9643 9643 9632 9641 9645 9655 9646 9629 9647 9646 9657 9662 8900 8904 8913 8912 8900 8909 8896 8906 8917 8906 8917 8899 8866 8908 8909 8891 8913 8899 8897 8912 8901 8892 8899 8903 8895 8916 8904 8909 8908 8911 8898 8891 8909 8904 8899 8885 8910 8904 8913 8903 732 727 727 724 698 709 708 722 723 715 723 729 730 730 727 727 714 720 729 725 744 714 709 725 714 721 720 712 719 728 727 720 721 723 712 708 714 704 730 734
9 13 21 26 27 14 10 6 5 9 10 11 18 1 6 5 12 10 14 17 12 22 9 7 9651 9634 9636 9636 9619 9641 9634 9640 9611 9651 9631 9624 9626 9662 9648 9645 9648 9638 9627 9632 9616 9632 9645 9639 9644 9635 9634 9630 9636 9636 9624 9634 9637 9648 9639 9622 9639 9639 9649 9655 8892 8895 8904 8904 8892 8900 8887 8898 8909 8897 8909 8891 8858 8900 8901 8883 8904 8891 8888 8903 8892 8884 8890 8895 8887 8907 8895 8901 8900 8903 8889 8882 8901 8896 8891 8877 8902 8896 8905 8894 729 724 724 721 695 706 705 719 719 712 720 726 727 727 724 724 711 717 726 722 741 711 706 722 711 718 717 709 716 724 724 717 718 720 709 705 712 701 727 731
4 30 18 36 5 10 4 4 14 15 17 11 8 15 5 19 19 14 12 6 15 18 3 9660 9642 9645 9645 9628 9649 9642 9649 9620 9660 9639 9633 9634 9671 9657 9653 9657 9647 9635 9641 9624 9641 9654 9648 9653 9644 9643 9639 9644 9644 9633 9642 9646 9656 9647 9630 9648 9648 9658 9664 8899 8903 8912 8911 8899 8908 8894 8905 8916 8904 8916 8898 8865 8907 8908 8890 8912 8898 8896 8911 8900 8891 8897 8902 8894 8915 8903 8908 8907 8910 8897 8890 8908 8903 8898 8884 8909 8903 8912 8901 737 732 732 729 703 714 713 727 727 719 728 734 735 735 732 732 718 725 734 730 749 719 714 730 719 726 725 717 724 732 732 725 726 727 716 713 719 709 735 739
34 14 40 2 12 7 7 17 18 21 8 12 19 8 23 23 16 12 5 13 21 6 9663 9646 9648 9648 9632 9653 9646 9652 9624 9664 9643 9637 9638 9675 9661 9657 9661 9650 9639 9645 9628 9644 9658 9652 9656 9648 9647 9643 9648 9648 9637 9646 9650 9660 9651 9634 9652 9652 9662 9667 8903 8906 8915 8914 8902 8911 8898 8908 8919 8908 8919 8901 8868 8910 8911 8893 8915 8901 8899 8914 8903 8894 8901 8905 8898 8918 8906 8911 8910 8913 8900 8893 8911 8906 8901 8887 8912 8906 8915 8905 740 735 735 732 706 718 717 731 731 723 731 737 738 739 735 735 722 728 738 733 752 723 717 733 722 729 728 720 727 736 735 728 729 731 720 716 723 713 738 742
45 12 35 26 28 26 18 19 16 40 22 15 26 13 12 27 37 32 40 14 28 9630 9612 9615 9615 9598 9619 9612 9619 9590 9630 9610 9603 9604 9641 9627 9623 9627 9617 9605 9611 9594 9611 9624 9618 9623 9614 9613 9609 9614 9614 9603 9612 9616 9626 9617 9600 9618 9618 9628 9634 8872 8875 8884 8883 8871 8880 8867 8877 8888 8877 8888 8870 8837 8879 8880 8863 8884 8870 8868 8883 8872 8863 8870 8874 8867 8887 8875 8880 8879 8882 8869 8862 8880 8875 8870 8856 8881 8875 8884 8874 713 708 708 706 679 690 689 703 703 696 703 710 711 711 708 708 694 701 710 706 724 695 689 706 695 702 701 693 700 708 708 701 701 703 693 688 696 685 711 714
53 12 20 21 21 27 27 30 16 25 32 22 33 35 21 23 14 7 35 19 9674 9657 9659 9659 9642 9663 9656 9663 9634 9674 9654 9647 9649 9685 9671 9667 9671 9661 9650 9655 9638 9655 9668 9662 9667 9658 9657 9653 9659 9659 9647 9656 9660 9670 9662 9644 9662 9662 9672 9678 8908 8912 8921 8920 8908 8917 8904 8914 8925 8914 8925 8907 8874 8916 8917 8899 8921 8907 8905 8920 8909 8900 8907 8911 8903 8924 8912 8917 8916 8919 8906 8899 8917 8912 8907 8893 8918 8912 8921 8911 755 749 750 747 720 732 731 745 745 737 745 751 752 753 750 749 736 743 752 747 766 737 731 748 736 743 742 735 741 750 749 742 743 745 734 730 737 727 752 756
41 34 33 32 27 29 25 44 28 21 31 23 18 36 39 39 48 18 34 9625 9608 9610 9610 9594 9615 9608 9614 9586 9626 9605 9599 9600 9637 9623 9619 9623 9612 9601 9607 9590 9606 9620 9614 9618 9610 9609 9605 9610 9610 9599 9608 9612 9622 9613 9596 9614 9614 9624 9629 8872 8875 8884 8883 8872 8880 8867 8878 8889 8877 8888 8870 8838 8880 8880 8863 8884 8871 8868 8883 8872 8863 8870 8874 8867 8887 8875 8880 8879 8883 8869 8862 8881 8876 8870 8856 8882 8876 8885 8874 703 698 698 696 669 680 679 693 693 686 693 700 701 701 698 698 685 691 700 696 715 686 680 696 685 692 691 683 690 698 698 691 692 694 683 679 686 676 701 705
12 9 9 18 18 21 9 14 20 10 23 24 15 13 4 11 23 7 9664 9647 9650 9649 9633 9654 9647 9653 9625 9665 9644 9638 9639 9676 9662 9658 9662 9651 9640 9646 9629 9645 9659 9653 9657 9649 9648 9644 9649 9649 9638 9647 9651 9661 9652 9635 9653 9653 9663 9668 8903 8906 8915 8915 8903 8911 8898 8909 8920 8908 8919 8902 8869 8911 8911 8894 8915 8902 8899 8914 8903 8894 8901 8906 8898 8918 8906 8911 8911 8914 8900 8893 8912 8907 8901 8887 8913 8907 8916 8905 743 737 738 735 708 720 719 733 733 725 733 739 740 741 737 737 724 730 740 735 754 725 719 735 724 731 730 722 729 738 737 730 731 733 722 718 725 715 740 744
11 9 7 7 10 20 9 14 11 13 17 4 22 7 14 18 8 9654 9637 9639 9639 9622 9644 9637 9643 9615 9655 9634 9628 9629 9666 9651 9648 9652 9641 9630 9636 9619 9635 9649 9642 9647 9639 9638 9633 9639 9639 9628 9637 9641 9651 9642 9625 9643 9642 9653 9658 8891 8895 8903 8903 8891 8900 8886 8897 8908 8896 8908 8890 8857 8899 8900 8882 8903 8890 8888 8903 8891 8883 8889 8894 8886 8906 8894 8900 8899 8902 8889 8881 8900 8895 8890 8876 8901 8895 8904 8893 737 732 732 730 703 715 713 728 728 720 728 734 735 735 732 732 719 726 734 730 749 720 714 730 719 726 725 717 724 733 732 725 726 728 717 713 720 710 735 739
3 14 15 17 12 7 13 2 18 16 16 11 9 19 15 4 9657 9640 9642 9642 9626 9647 9640 9646 9618 9658 9637 9631 9632 9669 9654 9651 9655 9644 9633 9639 9622 9638 9652 9645 9650 9642 9641 9636 9642 9642 9631 9640 9644 9654 9645 9628 9646 9645 9656 9661 8898 8902 8911 8910 8898 8907 8893 8904 8915 8903 8915 8897 8864 8906 8907 8889 8911 8897 8895 8910 8899 8890 8896 8901 8893 8913 8902 8907 8906 8909 8896 8889 8907 8902 8897 8883 8908 8902 8911 8900 733 728 729 726 699 711 710 724 724 716 724 730 731 732 728 728 715 721 731 726 745 716 710 726 715 722 721 713 720 729 728 721 722 724 713 709 716 706 731 735
11 12 15 14 5 12 2 16 15 13 13 8 18 14 2 9656 9639 9641 9641 9624 9646 9639 9645 9617 9656 9636 9629 9631 9667 9653 9650 9653 9643 9632 9637 9621 9637 9650 9644 9649 9640 9639 9635 9641 9641 9629 9639 9642 9653 9644 9627 9644 9644 9654 9660 8896 8900 8909 8908 8896 8905 8891 8902 8913 8901 8913 8895 8862 8904 8905 8887 8909 8895 8893 8908 8897 8888 8894 8899 8891 8911 8900 8905 8904 8907 8894 8887 8905 8900 8895 8881 8906 8900 8909 8898 734 729 729 726 700 711 710 724 724 716 724 730 732 732 729 728 715 722 731 726 745 716 710 727 715 722 722 714 720 729 729 722 722 724 713 709 716 706 732 735
2 3 25 8 8 13 6 10 9 25 14 21 12 12 9647 9630 9632 9632 9615 9637 9630 9636 9607 9647 9627 9620 9622 9658 9644 9641 9644 9634 9623 9628 9612 9628 9641 9635 9640 9631 9630 9626 9632 9632 9620 9630 9633 9643 9635 9618 9635 9635 9645 9651 8885 8889 8897 8897 8885 8894 8880 8891 8902 8890 8902 8884 8851 8893 8894 8876 8897 8884 8882 8897 8886 8877 8883 8888 8880 8900 8888 8894 8893 8896 8883 8875 8894 8889 8884 8870 8895 8889 8898 8887 731 725 726 723 696 708 707 721 721 713 721 727 728 728 725 725 712 719 727 723 742 713 707 724 712 719 718 710 717 726 725 718 719 721 710 706 713 703 728 732
4 25 9 10 14 6 12 7 26 14 21 14 12 9647 9630 9632 9632 9616 9637 9630 9636 9608 9648 9627 9621 9622 9659 9645 9641 9645 9634 9623 9629 9612 9628 9642 9636 9640 9632 9631 9627 9632 9632 9621 9630 9634 9644 9635 9618 9636 9636 9646 9651 8885 8888 8897 8897 8885 8893 8880 8891 8902 8890 8902 8884 8851 8893 8894 8876 8897 8884 8881 8896 8885 8876 8883 8888 8880 8900 8888 8894 8893 8896 8882 8875 8894 8889 8883 8869 8895 8889 8898 8887 732 726 727 724 698 709 708 722 722 714 722 729 730 730 727 727 713 720 729 725 743 714 708 725 713 721 720 712 719 727 727 720 720 722 711 707 714 704 730 733
28 11 9 16 3 10 11 28 17 24 13 15 9644 9626 9629 9629 9612 9633 9626 9633 9604 9644 9624 9617 9619 9655 9641 9637 9641 9631 9620 9625 9608 9625 9638 9632 9637 9628 9627 9623 9629 9628 9617 9626 9630 9640 9632 9614 9632 9632 9642 9648 8882 8885 8894 8894 8882 8890 8877 8888 8899 8887 8899 8881 8848 8890 8891 8873 8894 8881 8878 8893 8882 8873 8880 8885 8877 8897 8885 8890 8890 8893 8879 8872 8891 8886 8880 8866 8892 8886 8895 8884 728 723 724 721 694 706 704 719 719 711 719 725 726 726 723 723 710 717 725 721 740 711 705 722 710 717 716 708 715 724 723 716 717 719 708 704 711 701 726 730
18 25 13 30 28 24 7 13 18 26 13 9669 9652 9654 9654 9637 9659 9651 9658 9629 9669 9649 9642 9644 9680 9666 9663 9666 9656 9645 9650 9633 9650 9663 9657 9662 9653 9652 9648 9654 9654 9642 9652 9655 9665 9657 9640 9657 9657 9667 9673 8910 8913 8922 8922 8910 8918 8905 8916 8927 8915 8927 8909 8876 8918 8919 8901 8922 8909 8906 8921 8910 8901 8908 8913 8905 8925 8913 8919 8918 8921 8907 8900 8919 8914 8908 8894 8920 8914 8923 8912 742 737 737 734 708 719 718 732 732 724 733 738 740 740 737 736 723 730 739 734 754 724 719 735 723 730 729 722 728 737 737 730 731 732 721 718 724 714 740 743
7 5 12 10 13 17 11 21 10 6 9651 9634 9636 9636 9619 9641 9634 9640 9612 9652 9631 9625 9626 9663 9648 9645 9649 9638 9627 9633 9616 9632 9646 9639 9644 9636 9635 9630 9636 9636 9625 9634 9638 9648 9639 9622 9640 9639 9650 9655 8892 8895 8904 8903 8892 8900 8887 8898 8909 8897 8908 8890 8858 8900 8900 8883 8904 8891 8888 8903 8892 8883 8890 8894 8887 8907 8895 8900 8899 8903 8889 8882 8901 8896 8890 8876 8902 8896 8905 8894 730 725 725 722 696 707 706 720 720 712 720 727 728 728 725 725 711 718 727 723 742 712 706 723 712 719 718 710 717 725 725 718 719 720 709 706 712 702 728 731
11 8 4 16 22 18 27 4 13 9644 9627 9630 9629 9613 9634 9627 9634 9605 9645 9624 9618 9619 9656 9642 9638 9642 9632 9620 9626 9609 9625 9639 9633 9638 9629 9628 9624 9629 9629 9618 9627 9631 9641 9632 9615 9633 9633 9643 9649 8886 8889 8898 8898 8886 8894 8881 8892 8903 8891 8903 8885 8852 8894 8895 8877 8898 8885 8882 8897 8886 8878 8884 8889 8881 8901 8889 8895 8894 8897 8883 8876 8895 8890 8885 8871 8896 8890 8899 8888 724 719 719 716 690 701 700 714 714 706 714 721 722 722 719 719 705 712 721 717 736 706 700 717 706 713 712 704 711 719 719 712 712 714 703 700 706 696 722 725
17 15 16 12 10 20 13 4 9656 9638 9641 9641 9624 9645 9638 9645 9616 9656 9636 9629 9630 9667 9653 9649 9653 9643 9631 9637 9620 9637 9650 9644 9649 9640 9639 9635 9640 9640 9629 9638 9642 9652 9643 9626 9644 9644 9654 9660 8897 8900 8909 8908 8897 8905 8892 8903 8914 8902 8913 8896 8863 8905 8905 8888 8909 8896 8893 8908 8897 8888 8895 8900 8892 8912 8900 8905 8904 8908 8894 8887 8906 8901 8895 8881 8907 8901 8910 8899 732 727 727 724 698 709 708 722 722 715 723 729 730 730 727 727 714 720 729 725 744 714 709 725 714 721 720 712 719 727 727 720 721 723 712 708 714 704 730 734
8 14 29 20 27 11 17 9641 9624 9627 9626 9610 9631 9624 9630 9602 9642 9621 9615 9616 9653 9639 9635 9639 9628 9617 9623 9606 9622 9636 9630 9634 9626 9625 9621 9626 9626 9615 9624 9628 9638 9629 9612 9630 9630 9640 9645 8880 8884 8893 8892 8880 8889 8875 8886 8897 8885 8897 8879 8846 8888 8889 8871 8893 8879 8877 8892 8881 8872 8878 8883 8875 8896 8884 8889 8888 8891 8878 8871 8889 8884 8879 8865 8890 8884 8893 8882 726 720 721 718 691 703 702 716 716 708 716 722 723 724 720 720 707 714 723 718 737 708 702 719 707 714 714 706 713 721 721 713 714 716 705 701 708 698 723 727
19 25 21 30 4 17 9641 9624 9626 9626 9609 9631 9624 9630 9601 9641 9621 9614 9616 9652 9638 9635 9638 9628 9617 9622 9606 9622 9635 9629 9634 9625 9624 9620 9626 9626 9614 9624 9627 9638 9629 9612 9629 9629 9639 9645 8883 8886 8895 8895 8883 8891 8878 8889 8900 8888 8900 8882 8849 8891 8892 8874 8895 8882 8880 8894 8883 8875 8881 8886 8878 8898 8886 8892 8891 8894 8880 8873 8892 8887 8882 8868 8893 8887 8896 8885 721 715 716 713 686 698 697 711 711 703 711 717 718 719 715 715 702 709 718 713 732 703 697 714 702 709 709 701 707 716 716 708 709 711 700 696 703 693 718 722
26 11 14 21 12 9653 9636 9638 9638 9622 9643 9636 9642 9614 9654 9633 9627 9628 9665 9650 9647 9651 9640 9629 9635 9618 9634 9648 9641 9646 9638 9637 9632 9638 9638 9627 9636 9640 9650 9641 9624 9642 9641 9652 9657 8889 8892 8901 8900 8889 8897 8884 8894 8905 8894 8905 8887 8854 8897 8897 8880 8901 8887 8885 8900 8889 8880 8887 8891 8884 8904 8892 8897 8896 8899 8886 8879 8898 8892 8887 8873 8898 8892 8901 8891 739 734 734 732 705 716 715 729 729 722 729 736 737 737 734 734 721 727 736 732 751 722 715 732 721 728 727 719 726 734 734 727 728 730 719 715 722 712 737 741
17 24 23 14 9665 9647 9650 9650 9633 9654 9647 9654 9625 9665 9645 9638 9640 9676 9662 9658 9662 9652 9641 9646 9629 9646 9659 9653 9658 9649 9648 9644 9650 9649 9638 9647 9651 9661 9653 9635 9653 9653 9663 9669 8908 8912 8921 8920 8908 8917 8903 8914 8925 8913 8925 8907 8874 8916 8917 8899 8921 8907 8905 8920 8909 8900 8906 8911 8903 8923 8912 8917 8916 8919 8906 8899 8917 8912 8907 8893 8918 8912 8921 8910 735 730 730 727 701 712 711 725 725 717 726 732 733 733 730 729 717 723 732 728 747 717 712 728 717 723 723 715 722 730 730 723 724 725 714 711 717 707 733 737
10 21 6 9661 9644 9646 9646 9629 9651 9644 9650 9622 9662 9641 9635 9636 9672 9658 9655 9659 9648 9637 9642 9626 9642 9655 9649 9654 9645 9645 9640 9646 9646 9634 9644 9648 9658 9649 9632 9649 9649 9659 9665 8899 8902 8911 8910 8899 8907 8894 8905 8915 8904 8915 8897 8864 8907 8907 8890 8911 8897 8895 8910 8899 8890 8897 8901 8894 8914 8902 8907 8906 8910 8896 8889 8908 8903 8897 8883 8908 8903 8911 8901 741 736 736 734 707 719 717 731 732 724 732 738 739 739 736 736 723 729 738 734 753 724 718 734 723 730 729 721 728 737 736 729 730 732 721 717 724 714 739 743
30 15 9667 9650 9652 9652 9636 9657 9650 9656 9628 9668 9647 9641 9642 9679 9665 9661 9665 9654 9643 9649 9632 9648 9662 9656 9660 9652 9651 9647 9652 9652 9641 9650 9654 9664 9655 9638 9656 9656 9666 9671 8901 8905 8914 8913 8901 8910 8897 8907 8918 8907 8918 8900 8867 8909 8910 8892 8914 8900 8898 8913 8902 8893 8900 8904 8896 8917 8905 8910 8909 8912 8899 8892 8910 8905 8900 8886 8911 8905 8914 8904 751 746 746 743 717 728 727 741 741 733 741 748 748 749 746 745 732 739 748 743 762 733 727 744 732 739 739 731 738 746 746 739 739 741 730 726 733 723 749 752
16 9643 9625 9628 9628 9611 9632 9625 9632 9603 9643 9623 9616 9618 9654 9640 9636 9640 9630 9619 9624 9607 9624 9637 9631 9636 9627 9626 9622 9628 9628 9616 9625 9629 9639 9631 9613 9631 9631 9641 9647 8886 8889 8898 8898 8886 8894 8881 8892 8903 8891 8903 8885 8852 8894 8895 8877 8898 8885 8882 8897 8886 8877 8884 8889 8881 8901 8889 8894 8894 8897 8883 8876 8895 8890 8884 8870 8896 8890 8899 8888 720 715 715 713 686 698 696 710 711 703 711 717 718 718 715 715 702 708 717 713 732 703 697 713 702 709 708 700 707 716 715 708 709 711 700 696 703 693 718 722
9657 9640 9642 9642 9626 9647 9640 9646 9618 9658 9637 9631 9632 9669 9655 9651 9655 9644 9633 9639 9622 9638 9652 9646 9650 9642 9641 9637 9642 9642 9631 9640 9644 9654 9645 9628 9646 9646 9656 9661 8897 8900 8909 8909 8897 8905 8892 8903 8914 8902 8914 8896 8863 8905 8906 8888 8909 8896 8893 8908 8897 8888 8895 8900 8892 8912 8900 8905 8905 8908 8894 8887 8906 8901 8895 8881 8907 8901 8910 8899 736 731 731 728 702 713 712 726 726 718 726 733 734 734 731 730 717 724 733 729 748 718 712 729 718 725 724 716 723 731 731 724 725 726 715 712 718 708 734 737
26 20 20 37 29 17 15 39 17 28 35 26 31 27 9 19 18 30 27 36 30 17 23 25 24 23 23 23 27 33 33 16 33 16 34 30 19 25 8 3759 3761 3758 3753 3765 3754 3762 3778 3763 3757 3753 3761 3766 3767 3750 3770 3752 3758 3764 3759 3771 3761 3753 3755 3761 3743 3763 3765 3757 3744 3750 3754 3767 3761 3770 3766 3761 3767 3764 3766 9066 9062 9070 9082 9093 9087 9081 9077 9069 9085 9063 9071 9066 9061 9067 9077 9080 9082 9061 9076 9048 9088 9076 9078 9083 9084 9081 9080 9083 9065 9075 9074 9064 9075 9086 9081 9092 9090 9070 9059
6 6 14 10 19 11 30 18 3 10 14 30 16 17 15 32 7 1 21 4 12 6 11 2 3 9 3 4 9 8 11 19 11 12 10 7 17 25 3735 3736 3734 3729 3740 3730 3738 3753 3739 3733 3729 3737 3741 3742 3725 3746 3727 3733 3739 3734 3746 3736 3728 3731 3737 3718 3739 3740 3733 3720 3726 3729 3742 3737 3746 3742 3736 3743 3740 3742 9050 9046 9053 9066 9077 9070 9064 9061 9052 9068 9047 9055 9050 9045 9051 9060 9063 9066 9045 9060 9031 9071 9060 9061 9067 9068 9065 9063 9067 9049 9059 9057 9048 9058 9070 9064 9075 9074 9054 9043
1 18 14 14 6 29 16 7 15 12 30 17 12 13 27 10 6 21 10 9 7 13 5 3 7 4 9 13 14 5 22 5 15 14 3 17 20 3740 3742 3740 3735 3746 3736 3744 3759 3744 3739 3735 3743 3747 3748 3731 3752 3733 3739 3745 3740 3752 3742 3734 3736 3743 3724 3745 3746 3739 3726 3731 3735 3748 3742 3751 3747 3742 3748 3745 3748 9052 9048 9056 9068 9079 9072 9066 9063 9054 9070 9049 9057 9052 9047 9053 9062 9065 9068 9047 9062 9033 9073 9062 9064 9069 9070 9067 9066 9069 9051 9061 9059 9050 9061 9072 9067 9077 9076 9056 9045
18 15 13 5 28 16 8 15 11 31 18 11 14 26 11 7 21 11 10 8 13 6 3 6 4 9 13 14 5 22 5 15 15 4 18 20 3741 3743 3740 3735 3747 3736 3744 3760 3745 3739 3735 3743 3748 3749 3732 3752 3734 3740 3745 3741 3753 3743 3734 3737 3743 3725 3745 3747 3739 3726 3732 3736 3749 3743 3752 3748 3743 3749 3746 3748 9052 9048 9055 9068 9079 9072 9066 9063 9054 9070 9049 9057 9052 9047 9053 9062 9065 9068 9047 9062 9033 9073 9062 9063 9069 9070 9067 9065 9069 9051 9061 9059 9050 9060 9072 9066 9077 9076 9056 9045
23 24 23 22 32 12 7 13 44 30 29 29 37 8 13 11 13 26 20 25 16 15 14 17 17 5 17 21 31 22 3 22 20 31 38 3729 3731 3729 3724 3735 3725 3732 3748 3733 3728 3724 3732 3736 3737 3720 3741 3722 3728 3734 3729 3741 3731 3723 3725 3732 3713 3734 3735 3728 3715 3720 3724 3737 3731 3740 3736 3731 3737 3734 3737 9036 9031 9039 9051 9062 9056 9050 9047 9038 9054 9032 9041 9035 9030 9036 9046 9049 9052 9030 9046 9017 9057 9045 9047 9052 9053 9051 9049 9052 9034 9044 9043 9034 9044 9055 9050 9061 9059 9040 9028
28 17 41 15 13 17 24 22 8 22 11 40 16 12 31 10 12 7 4 10 13 19 11 7 18 7 18 9 17 21 1 12 9 25 3730 3732 3730 3724 3736 3725 3733 3749 3734 3728 3724 3732 3737 3738 3721 3742 3723 3729 3735 3730 3742 3732 3724 3726 3732 3714 3734 3736 3728 3715 3721 3725 3738 3732 3741 3737 3732 3738 3735 3737 9057 9053 9061 9073 9084 9078 9072 9068 9060 9076 9054 9062 9057 9052 9058 9068 9071 9073 9052 9067 9039 9079 9067 9069 9074 9075 9072 9071 9074 9056 9066 9065 9055 9066 9077 9072 9083 9081 9061 9050
12 22 25 19 25 11 40 30 12 24 14 19 19 20 23 20 21 26 19 16 11 17 23 21 27 10 35 11 21 28 16 30 23 3752 3754 3752 3746 3758 3747 3755 3771 3756 3750 3746 3754 3759 3760 3743 3763 3745 3751 3757 3752 3764 3754 3746 3748 3754 3736 3756 3758 3750 3738 3743 3747 3760 3754 3763 3759 3754 3760 3757 3759 9049 9045 9052 9065 9076 9069 9063 9060 9051 9067 9046 9054 9049 9044 9050 9059 9062 9065 9044 9059 9030 9070 9059 9060 9066 9067 9064 9062 9066 9048 9058 9056 9047 9057 9069 9063 9074 9073 9053 9042
31 14 13 20 14 29 18 6 12 23 16 12 25 15 8 10 15 10 8 10 9 13 18 19 3 24 1 20 18 5 18 15 3746 3747 3745 3740 3751 3741 3749 3764 3750 3744 3740 3748 3752 3753 3736 3757 3738 3744 3750 3745 3757 3747 3739 3742 3748 3729 3750 3751 3744 3731 3737 3740 3753 3748 3757 3753 3747 3754 3751 3753 9056 9051 9059 9072 9082 9076 9070 9067 9058 9074 9053 9061 9055 9051 9057 9066 9069 9072 9051 9066 9037 9077 9066 9067 9073 9074 9071 9069 9073 9055 9064 9063 9054 9064 9075 9070 9081 9080 9060 9049
44 28 28 17 59 46 34 42 29 25 29 11 32 38 35 41 31 29 22 31 34 24 36 28 49 29 22 40 32 46 44 3745 3747 3745 3739 3751 3740 3748 3764 3749 3743 3740 3747 3751 3753 3736 3756 3738 3744 3749 3745 3757 3747 3739 3741 3747 3729 3749 3751 3743 3731 3736 3740 3753 3747 3756 3752 3747 3753 3750 3752 9027 9023 9030 9043 9053 9047 9041 9038 9029 9045 9024 9032 9026 9022 9028 9037 9040 9043 9022 9037 9008 9048 9037 9038 9044 9045 9042 9040 9044 9026 9035 9034 9025 9035 9047 9041 9052 9051 9031 9020
21 28 27 16 10 13 3 33 25 19 37 20 6 13 10 16 17 22 16 17 27 21 16 16 15 30 16 12 8 11 3743 3745 3743 3738 3749 3739 3747 3762 3747 3742 3738 3746 3750 3751 3734 3755 3736 3742 3748 3743 3755 3745 3737 3739 3746 3727 3748 3749 3742 3729 3734 3738 3751 3745 3754 3750 3745 3751 3748 3751 9068 9063 9071 9083 9094 9088 9082 9079 9070 9086 9064 9073 9067 9063 9068 9078 9081 9084 9062 9078 9049 9089 9077 9079 9084 9085 9083 9081 9084 9066 9076 9075 9066 9076 9087 9082 9093 9091 9072 9060
8 12 33 19 19 18 32 4 2 18 4 15 8 14 5 4 8 5 6 6 9 12 21 12 9 12 9 20 27 3734 3735 3733 3728 3740 3729 3737 3753 3738 3732 3728 3736 3740 3742 3725 3745 3727 3733 3738 3733 3746 3736 3727 3730 3736 3718 3738 3740 3732 3719 3725 3728 3741 3736 3745 3741 3736 3742 3739 3741 9047 9043 9051 9063 9074 9067 9061 9058 9049 9065 9044 9052 9047 9042 9048 9057 9060 9063 9042 9057 9028 9068 9057 9059 9064 9065 9062 9061 9064 9046 9056 9054 9045 9056 9067 9062 9072 9071 9051 9040
15 38 24 27 24 39 5 9 17 7 22 15 20 12 12 14 13 11 5 10 19 25 20 6 16 17 25 35 3727 3729 3727 3722 3733 3723 3731 3746 3731 3726 3722 3730 3734 3735 3718 3739 3720 3726 3732 3727 3739 3729 3721 3723 3730 3711 3732 3733 3726 3713 3718 3722 3735 3729 3738 3734 3729 3735 3732 3735 9041 9037 9044 9057 9068 9061 9055 9052 9043 9059 9038 9046 9041 9036 9042 9051 9054 9057 9036 9051 9022 9062 9051 9052 9058 9059 9056 9054 9058 9040 9050 9048 9039 9049 9061 9055 9066 9065 9045 9034
42 29 19 25 24 10 13 10 16 21 18 24 14 12 5 14 18 11 21 12 32 13 11 24 15 29 29 3742 3743 3741 3736 3748 3737 3745 3761 3746 3740 3736 3744 3748 3750 3733 3753 3735 3740 3746 3741 3754 3743 3735 3738 3744 3726 3746 3748 3740 3727 3733 3736 3749 3744 3753 3749 3744 3750 3747 3749 9042 9037 9045 9057 9068 9062 9056 9053 9044 9060 9038 9047 9041 9037 9042 9052 9055 9058 9036 9052 9023 9063 9051 9053 9058 9059 9057 9055 9058 9040 9050 9049 9040 9050 9061 9056 9067 9065 9046 9034
14 29 17 48 37 31 51 31 21 25 19 29 31 37 29 27 39 29 32 15 30 42 23 27 13 23 3737 3739 3736 3731 3743 3732 3740 3756 3741 3735 3731 3740 3744 3745 3728 3749 3730 3736 3742 3737 3749 3739 3731 3733 3739 3721 3741 3743 3735 3722 3728 3732 3745 3739 3748 3744 3739 3745 3742 3744 9079 9075 9082 9095 9106 9099 9093 9090 9081 9097 9076 9084 9079 9074 9080 9089 9092 9095 9074 9089 9060 9100 9089 9091 9096 9097 9094 9093 9096 9078 9088 9086 9077 9088 9099 9093 9104 9103 9083 9072
21 7 41 23 17 37 17 11 11 5 15 17 24 15 13 25 15 20 6 19 28 9 14 2 20 3734 3735 3733 3728 3739 3729 3737 3752 3738 3732 3728 3736 3740 3741 3724 3745 3726 3732 3738 3733 3745 3735 3727 3730 3736 3717 3738 3739 3732 3719 3725 3728 3741 3736 3745 3741 3735 3742 3739 3741 9065 9060 9068 9081 9091 9085 9079 9076 9067 9083 9062 9070 9064 9060 9066 9075 9078 9081 9060 9075 9046 9086 9075 9076 9082 9083 9080 9078 9082 9064 9073 9072 9063 9073 9084 9079 9090 9089 9069 9058
14 20 22 18 29 21 10 15 18 16 14 15 15 19 24 24 8 27 7 26 22 11 20 10 3751 3753 3751 3745 3757 3746 3754 3770 3755 3749 3745 3754 3758 3759 3742 3763 3744 3750 3756 3751 3763 3753 3745 3747 3753 3735 3755 3757 3749 3737 3742 3746 3759 3753 3762 3758 3753 3759 3756 3758 9060 9056 9064 9076 9087 9081 9075 9071 9063 9079 9057 9065 9060 9055 9061 9071 9074 9076 9055 9070 9042 9082 9070 9072 9077 9078 9075 9074 9077 9059 9069 9068 9058 9069 9080 9075 9086 9084 9064 9053
33 22 16 34 17 4 9 7 13 14 20 13 13 24 17 15 13 13 27 13 10 6 13 3741 3742 3740 3735 3746 3736 3744 3759 3745 3739 3735 3743 3747 3748 3731 3752 3733 3739 3745 3740 3752 3742 3734 3737 3743 3724 3745 3746 3739 3726 3732 3735 3748 3743 3752 3748 3742 3749 3746 3748 9065 9060 9068 9080 9091 9085 9079 9076 9067 9083 9061 9070 9064 9060 9065 9075 9078 9081 9059 9075 9046 9086 9075 9076 9081 9083 9080 9078 9081 9064 9073 9072 9063 9073 9084 9079 9090 9088 9069 9057
33 32 31 36 30 33 37 32 29 25 30 36 34 41 22 46 23 35 40 28 40 26 3766 3767 3765 3760 3772 3761 3769 3785 3770 3764 3760 3768 3772 3774 3757 3777 3759 3764 3770 3765 3778 3767 3759 3762 3768 3750 3770 3772 3764 3751 3757 3760 3773 3768 3777 3773 3768 3774 3771 3773 9053 9048 9056 9068 9079 9073 9067 9064 9055 9071 9050 9058 9052 9048 9054 9063 9066 9069 9048 9063 9034 9074 9063 9064 9070 9071 9068 9066 9070 9052 9061 9060 9051 9061 9072 9067 9078 9077 9057 9046
6 15 7 19 12 18 9 8 9 9 10 2 11 14 25 15 5 15 13 23 30 3733 3734 3732 3727 3738 3728 3736 3751 3737 3731 3727 3735 3739 3740 3723 3744 3725 3731 3737 3732 3744 3734 3726 3729 3735 3716 3737 3738 3731 3718 3724 3727 3740 3735 3744 3740 3735 3741 3738 3740 9043 9039 9046 9059 9070 9063 9057 9054 9045 9061 9040 9048 9043 9038 9044 9053 9056 9059 9038 9053 9024 9064 9053 9055 9060 9061 9058 9057 9060 9042 9052 9050 9041 9052 9063 9057 9068 9067 9047 9036
20 4 13 7 13 3 3 9 4 5 8 9 11 20 11 11 11 8 18 26 3734 3736 3734 3729 3740 3730 3738 3753 3738 3733 3729 3737 3741 3742 3725 3746 3727 3733 3739 3734 3746 3736 3728 3730 3737 3718 3739 3740 3733 3720 3725 3729 3742 3736 3745 3741 3736 3742 3739 3742 9049 9044 9052 9064 9075 9069 9063 9060 9051 9067 9045 9054 9048 9044 9049 9059 9062 9065 9043 9059 9030 9070 9058 9060 9065 9067 9064 9062 9065 9048 9057 9056 9047 9057 9068 9063 9074 9072 9053 9041
22 31 26 32 22 20 15 22 25 13 26 22 40 23 11 30 25 38 39 3738 3739 3737 3732 3743 3733 3741 3756 3742 3736 3732 3740 3744 3745 3728 3749 3730 3736 3742 3737 3749 3739 3731 3733 3740 3721 3742 3743 3736 3723 3729 3732 3745 3740 3749 3744 3739 3746 3743 3745 9031 9027 9035 9047 9058 9052 9046 9042 9034 9050 9028 9036 9031 9026 9032 9042 9045 9047 9026 9041 9013 9053 9041 9043 9048 9049 9046 9045 9048 9030 9040 9039 9029 9040 9051 9046 9057 9055 9035 9024
15 8 12 5 7 12 7 4 9 5 15 18 15 12 9 11 18 28 3730 3732 3730 3725 3736 3726 3734 3749 3735 3729 3725 3733 3737 3738 3721 3742 3723 3729 3735 3730 3742 3732 3724 3726 3733 3714 3735 3736 3729 3716 3722 3725 3738 3733 3741 3737 3732 3739 3735 3738 9048 9044 9052 9064 9075 9069 9063 9059 9051 9067 9045 9053 9048 9043 9049 9059 9062 9065 9043 9058 9030 9070 9058 9060 9065 9066 9063 9062 9065 9047 9057 9056 9046 9057 9068 9063 9074 9072 9052 9041
7 8 10 11 16 10 12 21 16 11 16 9 24 13 6 10 13 3742 3744 3741 3736 3748 3737 3745 3761 3746 3740 3736 3744 3749 3750 3733 3754 3735 3741 3747 3742 3754 3744 3736 3738 3744 3726 3746 3748 3740 3727 3733 3737 3750 3744 3753 3749 3744 3750 3747 3749 9062 9057 9065 9077 9088 9082 9076 9072 9064 9080 9058 9066 9061 9056 9062 9072 9075 9078 9056 9072 9043 9083 9071 9073 9078 9079 9077 9075 9078 9060 9070 9069 9059 9070 9081 9076 9087 9085 9065 9054
6 4 6 13 4 4 15 9 11 15 11 18 7 5 11 21 3736 3737 3735 3730 3742 3731 3739 3754 3740 3734 3730 3738 3742 3744 3727 3747 3728 3734 3740 3735 3748 3737 3729 3732 3738 3720 3740 3742 3734 3721 3727 3730 3743 3738 3747 3743 3738 3744 3741 3743 9056 9051 9059 9071 9082 9076 9070 9067 9058 9074 9052 9061 9055 9050 9056 9066 9069 9072 9050 9066 9037 9077 9065 9067 9072 9073 9071 9069 9072 9054 9064 9063 9054 9064 9075 9070 9081 9079 9060 9048
10 12 19 11 8 20 11 16 9 15 23 6 10 5 20 3734 3736 3733 3728 3740 3729 3737 3753 3738 3732 3728 3736 3741 3742 3725 3746 3727 3733 3739 3734 3746 3736 3728 3730 3736 3718 3738 3740 3732 3719 3725 3729 3742 3736 3745 3741 3736 3742 3739 3741 9061 9056 9064 9076 9087 9081 9075 9071 9063 9079 9057 9065 9060 9055 9061 9071 9074 9077 9055 9071 9042 9082 9070 9072 9077 9078 9076 9074 9077 9059 9069 9068 9058 9069 9080 9075 9086 9084 9064 9053
3 10 1 4 11 9 10 18 10 14 10 5 15 23 3736 3737 3735 3730 3741 3731 3739 3754 3740 3734 3730 3738 3742 3743 3726 3747 3728 3734 3740 3735 3747 3737 3729 3732 3738 3719 3740 3741 3734 3721 3727 3730 3743 3738 3747 3743 3738 3744 3741 3743 9052 9047 9055 9067 9078 9072 9066 9063 9054 9070 9048 9057 9051 9047 9052 9062 9065 9068 9046 9062 9033 9073 9061 9063 9068 9069 9067 9065 9068 9050 9060 9059 9050 9060 9071 9066 9077 9075 9056 9044
7 2 7 10 11 8 21 8 13 12 5 17 22 3738 3739 3737 3732 3743 3733 3741 3756 3742 3736 3732 3740 3744 3746 3728 3749 3730 3736 3742 3737 3749 3739 3731 3734 3740 3721 3742 3743 3736 3723 3729 3732 3745 3740 3749 3745 3740 3746 3743 3745 9051 9046 9054 9066 9077 9071 9065 9062 9053 9069 9047 9056 9050 9045 9051 9061 9064 9067 9045 9061 9032 9072 9060 9062 9067 9068 9066 9064 9067 9049 9059 9058 9049 9059 9070 9065 9076 9074 9055 9043
9 13 10 17 7 28 9 11 19 10 24 25 3741 3743 3741 3736 3747 3737 3744 3760 3745 3740 3736 3744 3748 3749 3732 3753 3734 3740 3746 3741 3753 3743 3735 3737 3744 3725 3746 3747 3740 3727 3732 3736 3749 3743 3752 3748 3743 3749 3746 3749 9046 9042 9049 9062 9073 9066 9060 9057 9048 9064 9043 9051 9046 9041 9047 9056 9059 9062 9041 9056 9027 9067 9056 9058 9063 9064 9061 9060 9063 9045 9055 9053 9044 9055 9066 9060 9071 9070 9050 9039
5 11 10 9 19 8 14 11 4 16 22 3737 3739 3736 3731 3743 3732 3740 3756 3741 3735 3731 3739 3744 3745 3728 3748 3730 3736 3741 3736 3749 3739 3730 3733 3739 3721 3741 3743 3735 3722 3728 3732 3745 3739 3748 3744 3739 3745 3742 3744 9052 9048 9055 9068 9079 9072 9066 9063 9054 9070 9049 9057 9052 9047 9053 9062 9065 9068 9047 9062 9033 9073 9062 9063 9069 9070 9067 9065 9069 9051 9061 9059 9050 9060 9072 9066 9077 9076 9056 9045
12 5 14 15 13 15 6 8 14 25 3732 3734 3732 3726 3738 3727 3735 3751 3736 3730 3727 3735 3739 3740 3723 3744 3725 3731 3737 3732 3744 3734 3726 3728 3734 3716 3736 3738 3731 3718 3723 3727 3740 3734 3743 3739 3734 3740 3737 3740 9052 9048 9056 9068 9079 9072 9067 9063 9054 9071 9049 9057 9052 9047 9053 9062 9065 9068 9047 9062 9033 9073 9062 9064 9069 9070 9067 9066 9069 9051 9061 9059 9050 9061 9072 9067 9078 9076 9056 9045
13 16 27 17 3 17 15 26 33 3731 3733 3731 3726 3737 3727 3735 3750 3736 3730 3726 3734 3738 3739 3722 3743 3724 3730 3736 3731 3743 3733 3725 3727 3734 3715 3736 3737 3730 3717 3723 3726 3739 3734 3742 3738 3733 3740 3736 3739 9041 9036 9044 9056 9067 9061 9055 9052 9043 9059 9037 9046 9040 9036 9041 9051 9054 9057 9035 9051 9022 9062 9050 9052 9057 9058 9056 9054 9057 9039 9049 9048 9039 9049 9060 9055 9066 9064 9045 9033
19 15 19 15 6 14 16 30 3727 3729 3726 3721 3733 3722 3730 3746 3731 3725 3721 3729 3734 3735 3718 3738 3720 3726 3731 3726 3739 3729 3720 3723 3729 3711 3731 3733 3725 3712 3718 3721 3734 3729 3738 3734 3729 3735 3732 3734 9050 9046 9054 9066 9077 9071 9065 9061 9052 9069 9047 9055 9050 9045 9051 9061 9063 9066 9045 9060 9032 9072 9060 9062 9067 9068 9065 9064 9067 9049 9059 9057 9048 9059 9070 9065 9076 9074 9054 9043
25 2 18 19 6 20 18 3745 3747 3745 3740 3751 3741 3749 3764 3750 3744 3740 3748 3752 3753 3736 3757 3738 3744 3750 3745 3757 3747 3739 3741 3748 3729 3750 3751 3744 3731 3737 3740 3753 3748 3756 3752 3747 3754 3750 3753 9053 9049 9057 9069 9080 9074 9068 9064 9055 9072 9050 9058 9053 9048 9054 9063 9066 9069 9048 9063 9034 9075 9063 9065 9070 9071 9068 9067 9070 9052 9062 9060 9051 9062 9073 9068 9079 9077 9057 9046
24 30 9 19 7 26 3728 3729 3727 3722 3734 3723 3731 3747 3732 3726 3722 3730 3735 3736 3719 3739 3721 3727 3732 3727 3740 3730 3721 3724 3730 3712 3732 3734 3726 3713 3719 3723 3735 3730 3739 3735 3730 3736 3733 3735 9064 9060 9068 9080 9091 9085 9079 9075 9067 9083 9061 9069 9064 9059 9065 9075 9078 9081 9059 9074 9046 9086 9074 9076 9081 9082 9079 9078 9081 9063 9073 9072 9062 9073 9084 9079 9090 9088 9068 9057
19 18 5 19 16 3745 3747 3745 3740 3751 3741 3749 3764 3749 3744 3740 3748 3752 3753 3736 3757 3738 3744 3750 3745 3757 3747 3739 3741 3748 3729 3750 3751 3744 3731 3737 3740 3753 3747 3756 3752 3747 3754 3750 3753 9055 9050 9058 9070 9081 9075 9069 9066 9057 9073 9051 9060 9054 9050 9055 9065 9068 9071 9049 9065 9036 9076 9064 9066 9071 9072 9070 9068 9071 9054 9063 9062 9053 9063 9074 9069 9080 9078 9059 9047
20 18 29 35 3731 3733 3731 3726 3737 3727 3735 3750 3735 3730 3726 3734 3738 3739 3722 3743 3724 3730 3736 3731 3743 3733 3725 3727 3734 3715 3736 3737 3730 3717 3722 3726 3739 3733 3742 3738 3733 3739 3736 3739 9038 9033 9041 9054 9064 9058 9052 9049 9040 9056 9035 9043 9037 9033 9039 9048 9051 9054 9033 9048 9019 9059 9048 9049 9055 9056 9053 9051 9055 9037 9046 9045 9036 9046 9057 9052 9063 9062 9042 9031
12 10 26 3729 3731 3729 3723 3735 3724 3732 3748 3733 3727 3723 3732 3736 3737 3720 3741 3722 3728 3734 3729 3741 3731 3723 3725 3731 3713 3733 3735 3728 3715 3720 3724 3737 3731 3740 3736 3731 3737 3734 3737 9056 9052 9059 9072 9083 9076 9070 9067 9058 9074 9053 9061 9056 9051 9057 9066 9069 9072 9051 9066 9037 9077 9066 9068 9073 9074 9071 9070 9073 9055 9065 9063 9054 9065 9076 9070 9081 9080 9060 9049
14 18 3741 3742 3740 3735 3746 3736 3744 3759 3745 3739 3735 3743 3747 3748 3731 3752 3733 3739 3745 3740 3752 3742 3734 3736 3743 3724 3745 3746 3739 3726 3732 3735 3748 3743 3752 3748 3742 3749 3745 3748 9055 9051 9059 9071 9082 9076 9070 9066 9058 9074 9052 9060 9055 9050 9056 9066 9069 9071 9050 9065 9037 9077 9065 9067 9072 9073 9070 9069 9072 9054 9064 9063 9053 9064 9075 9070 9081 9079 9059 9048
19 3735 3737 3735 3729 3741 3730 3738 3754 3739 3733 3729 3738 3742 3743 3726 3747 3728 3734 3740 3735 3747 3737 3729 3731 3737 3719 3739 3741 3733 3721 3726 3730 3743 3737 3746 3742 3737 3743 3740 3742 9066 9062 9069 9082 9092 9086 9080 9077 9068 9084 9063 9071 9065 9061 9067 9076 9079 9082 9061 9076 9047 9087 9076 9077 9083 9084 9081 9079 9083 9065 9075 9073 9064 9074 9086 9080 9091 9090 9070 9059
3754 3756 3753 3748 3760 3749 3757 3773 3758 3752 3748 3756 3761 3762 3745 3765 3747 3753 3758 3754 3766 3756 3748 3750 3756 3738 3758 3760 3752 3739 3745 3749 3762 3756 3765 3761 3756 3762 3759 3761 9071 9066 9074 9086 9097 9091 9085 9082 9073 9089 9067 9076 9070 9066 9071 9081 9084 9087 9065 9081 9052 9092 9081 9082 9087 9089 9086 9084 9087 9070 9079 9078 9069 9079 9090 9085 9096 9094 9075 9063
4 12 13 6 10 6 20 17 5 18 3 35 11 13 15 14 2 6 11 12 9 7 5 5 22 5 10 8 18 9 11 12 4 11 17 10 9 14 8 8532 8522 8533 8549 8547 8545 8536 8541 8528 8546 8520 8536 8529 8523 8529 8543 8538 8547 8522 8541 8512 8550 8530 8543 8543 8549 8545 8537 8547 8527 8540 8534 8521 8537 8546 8536 8556 8547 8536 8522
9 11 5 8 9 17 14 4 15 5 38 8 12 16 13 5 8 8 11 12 10 6 9 21 3 7 5 18 12 15 8 1 11 20 6 7 10 6 8535 8525 8537 8552 8550 8549 8540 8544 8532 8550 8524 8540 8533 8526 8533 8546 8542 8550 8525 8545 8516 8554 8533 8547 8547 8553 8549 8541 8550 8530 8544 8537 8524 8541 8550 8539 8560 8551 8539 8526
5 14 6 18 20 6 7 7 14 47 9 9 24 7 13 17 1 17 21 15 10 17 16 10 7 5 14 17 23 9 9 18 29 3 12 6 13 8544 8534 8545 8561 8559 8558 8548 8553 8540 8558 8532 8549 8542 8535 8541 8555 8550 8559 8534 8553 8524 8562 8542 8555 8555 8562 8557 8550 8559 8539 8553 8546 8533 8549 8558 8548 8568 8559 8548 8534
16 3 19 25 11 8 5 15 48 14 5 27 2 14 18 5 21 21 14 9 19 11 13 12 6 9 15 21 14 11 21 30 8 16 11 16 8543 8533 8544 8560 8558 8557 8547 8552 8539 8557 8531 8548 8541 8534 8540 8554 8549 8558 8533 8552 8523 8561 8541 8555 8555 8561 8556 8549 8558 8538 8552 8545 8532 8548 8557 8547 8567 8558 8547 8533
13 5 14 17 9 20 4 34 8 17 11 18 7 4 13 6 9 12 10 6 27 4 9 11 23 15 15 9 5 5 15 11 5 13 3 8532 8522 8533 8549 8547 8546 8537 8541 8528 8546 8521 8537 8530 8523 8529 8543 8538 8547 8522 8541 8513 8550 8530 8544 8544 8550 8545 8538 8547 8527 8541 8534 8521 8538 8546 8536 8556 8547 8536 8522
16 23 12 5 8 12 44 12 5 24 5 10 15 5 18 18 11 6 15 13 10 10 3 10 12 18 12 8 19 27 7 14 11 14 8540 8530 8541 8557 8555 8554 8544 8549 8536 8554 8528 8545 8538 8531 8537 8551 8546 8555 8530 8549 8520 8558 8538 8551 8551 8558 8553 8546 8555 8535 8548 8542 8529 8545 8554 8544 8564 8555 8544 8530
19 22 11 23 4 29 14 18 9 20 6 2 17 10 4 10 11 1 28 8 14 14 24 12 10 14 9 8 11 15 10 18 8 8527 8517 8528 8544 8542 8541 8532 8536 8523 8541 8516 8532 8525 8518 8524 8538 8533 8542 8517 8536 8508 8545 8525 8539 8539 8545 8540 8533 8542 8522 8536 8529 8516 8533 8541 8531 8551 8542 8531 8517
18 20 27 18 42 11 28 17 27 21 17 20 9 22 26 23 20 36 15 13 20 34 29 29 11 17 11 24 17 11 15 12 8539 8529 8540 8556 8554 8553 8543 8548 8535 8553 8527 8544 8537 8530 8536 8550 8545 8554 8529 8548 8519 8557 8537 8551 8551 8557 8552 8545 8554 8534 8548 8541 8528 8544 8553 8543 8563 8554 8543 8529
13 10 18 51 10 16 27 12 19 20 7 18 25 21 16 22 20 14 8 11 20 23 28 9 13 20 32 7 14 4 15 8549 8539 8550 8566 8564 8563 8553 8558 8545 8563 8537 8554 8546 8540 8546 8560 8555 8564 8539 8558 8529 8567 8547 8560 8560 8566 8562 8555 8564 8544 8557 8551 8538 8554 8563 8553 8573 8564 8553 8539
12 8 40 10 8 19 9 6 11 6 14 14 8 3 11 18 6 8 3 14 10 15 10 4 14 22 6 10 10 10 8537 8527 8538 8554 8552 8550 8541 8546 8533 8551 8525 8541 8534 8528 8534 8547 8543 8552 8527 8546 8517 8555 8535 8548 8548 8554 8550 8542 8552 8532 8545 8539 8526 8542 8551 8541 8561 8552 8541 8527
20 52 16 9 31 5 18 23 7 24 26 19 14 23 11 17 14 10 11 20 26 15 15 25 35 10 19 11 20 8548 8538 8549 8565 8563 8562 8552 8557 8544 8562 8536 8553 8546 8539 8545 8559 8554 8563 8538 8557 8528 8566 8546 8559 8560 8566 8561 8554 8563 8543 8557 8550 8537 8553 8562 8552 8572 8563 8552 8538
33 11 15 12 17 4 3 13 9 7 9 8 4 25 5 10 10 21 11 12 11 5 9 15 11 8 14 6 8531 8521 8532 8548 8546 8544 8535 8540 8527 8545 8519 8535 8528 8522 8528 8541 8537 8546 8521 8540 8511 8549 8529 8542 8542 8548 8544 8536 8546 8526 8539 8533 8520 8536 8545 8535 8555 8546 8535 8521
42 46 26 49 34 31 46 35 26 35 38 30 54 38 43 43 50 35 27 43 38 33 19 44 38 47 36 8498 8488 8499 8515 8513 8512 8503 8507 8495 8512 8487 8503 8496 8489 8495 8509 8504 8513 8488 8507 8479 8517 8496 8510 8510 8516 8511 8504 8513 8493 8507 8500 8487 8504 8512 8502 8522 8513 8502 8488
17 17 16 13 12 9 9 17 17 13 14 25 6 2 9 23 20 22 1 7 10 23 6 4 6 6 8540 8530 8542 8557 8555 8554 8545 8549 8537 8555 8529 8545 8538 8531 8538 8551 8547 8555 8530 8549 8521 8559 8538 8552 8552 8558 8553 8546 8555 8535 8549 8542 8529 8546 8554 8544 8564 8555 8544 8530
27 4 13 18 9 23 20 11 8 18 10 15 15 8 6 11 19 17 12 23 29 11 18 15 18 8540 8530 8541 8557 8555 8553 8544 8549 8536 8554 8528 8544 8537 8531 8537 8551 8546 8555 8530 8549 8520 8558 8538 8551 8551 8557 8553 8545 8555 8535 8548 8542 8529 8545 8554 8544 8564 8555 8544 8530
28 15 9 24 9 10 19 19 10 37 14 19 21 33 21 17 18 16 8 8 21 13 23 12 8523 8513 8525 8541 8539 8537 8528 8533 8520 8538 8512 8528 8521 8515 8521 8534 8530 8538 8514 8533 8504 8542 8522 8535 8535 8541 8537 8529 8539 8518 8532 8526 8513 8529 8538 8528 8548 8539 8528 8514
15 20 7 23 23 14 10 20 9 15 14 7 7 15 22 15 13 23 31 10 18 12 18 8543 8533 8545 8561 8559 8557 8548 8552 8540 8558 8532 8548 8541 8535 8541 8554 8550 8558 8534 8553 8524 8562 8542 8555 8555 8561 8557 8549 8558 8538 8552 8546 8533 8549 8558 8548 8568 8559 8547 8534
6 13 13 8 5 5 5 22 7 12 9 18 8 10 13 6 12 17 11 11 15 9 8530 8520 8532 8548 8546 8544 8535 8539 8527 8545 8519 8535 8528 8522 8528 8541 8537 8545 8521 8540 8511 8549 8529 8542 8542 8548 8544 8536 8545 8525 8539 8533 8520 8536 8545 8535 8555 8546 8534 8521
16 8 6 11 11 3 28 7 12 13 24 13 12 13 8 7 12 14 8 16 6 8528 8518 8530 8546 8544 8542 8533 8538 8525 8543 8517 8533 8526 8520 8526 8539 8535 8543 8519 8538 8509 8547 8527 8540 8540 8546 8542 8534 8544 8523 8537 8531 8518 8534 8543 8533 8553 8544 8533 8519
17 20 15 9 17 16 9 7 4 14 16 22 8 8 17 28 3 11 6 12 8543 8533 8544 8560 8558 8557 8548 8552 8540 8557 8532 8548 8541 8534 8540 8554 8549 8558 8533 8552 8524 8561 8541 8555 8555 8561 8556 8549 8558 8538 8552 8545 8532 8549 8557 8547 8567 8558 8547 8533
13 18 16 11 32 8 10 15 28 21 20 10 10 2 16 14 5 14 5 8533 8523 8534 8550 8548 8547 8537 8542 8529 8547 8521 8538 8531 8524 8530 8544 8539 8548 8523 8542 8513 8551 8531 8544 8544 8551 8546 8539 8548 8528 8542 8535 8522 8538 8547 8537 8557 8548 8537 8523
10 13 3 30 12 17 16 25 12 7 18 12 12 9 18 14 21 12 8523 8513 8525 8541 8539 8537 8528 8532 8520 8538 8512 8528 8521 8515 8521 8534 8530 8538 8514 8533 8504 8542 8522 8535 8535 8541 8537 8529 8538 8518 8532 8526 8513 8529 8538 8528 8548 8539 8527 8514
5 9 20 12 16 11 15 2 8 18 10 17 19 14 16 19 14 8529 8519 8531 8546 8545 8543 8534 8538 8526 8544 8518 8534 8527 8520 8527 8540 8536 8544 8519 8539 8510 8548 8527 8541 8541 8547 8543 8535 8544 8524 8538 8531 8518 8535 8544 8534 8554 8545 8533 8520
10 17 8 11 6 13 7 13 13 6 16 21 9 12 14 11 8534 8524 8536 8551 8549 8548 8539 8543 8531 8548 8523 8539 8532 8525 8532 8545 8541 8549 8524 8543 8515 8553 8532 8546 8546 8552 8547 8540 8549 8529 8543 8536 8523 8540 8548 8538 8558 8549 8538 8524
27 8 14 13 23 11 9 15 9 9 11 15 11 18 9 8527 8517 8528 8544 8542 8541 8531 8536 8523 8541 8515 8532 8525 8518 8524 8538 8533 8542 8517 8536 8507 8545 8525 8538 8539 8545 8540 8533 8542 8522 8536 8529 8516 8532 8541 8531 8551 8542 8531 8517
24 23 16 5 19 27 25 22 32 38 19 27 21 27 8546 8536 8547 8563 8561 8559 8550 8555 8542 8560 8534 8550 8543 8537 8543 8557 8552 8561 8536 8555 8526 8564 8544 8557 8557 8563 8559 8551 8561 8541 8554 8548 8535 8551 8560 8550 8570 8561 8550 8536
6 7 20 14 16 7 2 8 19 7 4 10 3 8535 8525 8537 8552 8550 8549 8540 8544 8532 8550 8524 8540 8533 8526 8533 8546 8542 8550 8525 8545 8516 8554 8533 8547 8547 8553 8549 8541 8550 8530 8544 8537 8524 8541 8549 8539 8560 8551 8539 8526
7 20 18 21 2 6 11 24 4 5 4 7 8541 8531 8542 8558 8556 8554 8545 8550 8537 8555 8529 8545 8538 8532 8538 8552 8547 8556 8531 8550 8521 8559 8539 8552 8552 8558 8554 8547 8556 8536 8549 8543 8530 8546 8555 8545 8565 8556 8545 8531
13 13 18 9 5 16 25 4 11 8 11 8539 8529 8541 8556 8554 8553 8544 8548 8536 8554 8528 8544 8537 8530 8537 8550 8546 8554 8529 8549 8520 8558 8537 8551 8551 8557 8553 8545 8554 8534 8548 8541 8528 8545 8553 8543 8564 8555 8543 8530
15 23 22 18 28 34 16 24 20 24 8541 8531 8543 8559 8557 8555 8546 8550 8538 8556 8530 8546 8539 8533 8539 8552 8548 8556 8532 8551 8522 8560 8540 8553 8553 8559 8555 8547 8556 8536 8550 8544 8531 8547 8556 8546 8566 8557 8545 8532
8 20 13 20 20 16 18 21 17 8528 8518 8530 8546 8544 8542 8533 8537 8525 8543 8517 8533 8526 8520 8526 8539 8535 8543 8519 8538 8509 8547 8527 8540 8540 8546 8542 8534 8543 8523 8537 8531 8518 8534 8543 8533 8553 8544 8532 8519
23 16 18 14 21 19 25 17 8522 8512 8523 8539 8537 8535 8526 8531 8518 8536 8510 8526 8519 8513 8519 8532 8528 8537 8512 8531 8502 8540 8520 8533 8533 8539 8535 8527 8537 8517 8530 8524 8511 8527 8536 8526 8546 8537 8526 8512
7 11 24 6 5 5 7 8541 8531 8543 8558 8556 8555 8546 8550 8538 8555 8530 8546 8539 8532 8539 8552 8548 8556 8531 8550 8522 8560 8539 8553 8553 8559 8554 8547 8556 8536 8550 8543 8530 8547 8555 8545 8565 8556 8545 8531
10 20 6 6 9 6 8536 8526 8537 8553 8551 8549 8540 8545 8532 8550 8524 8540 8533 8527 8533 8547 8542 8551 8526 8545 8516 8554 8534 8547 8547 8553 8549 8542 8551 8531 8544 8538 8525 8541 8550 8540 8560 8551 8540 8526
15 15 6 16 5 8531 8521 8532 8548 8546 8545 8536 8540 8528 8545 8520 8536 8529 8522 8528 8542 8537 8546 8521 8540 8512 8550 8529 8543 8543 8549 8544 8537 8546 8526 8540 8533 8520 8537 8545 8535 8555 8546 8535 8521
26 19 28 17 8517 8507 8518 8534 8532 8531 8521 8526 8513 8531 8505 8522 8515 8508 8514 8528 8523 8532 8507 8526 8497 8535 8515 8528 8528 8535 8530 8523 8532 8512 8525 8519 8506 8522 8531 8521 8541 8532 8521 8507
9 4 10 8542 8532 8543 8559 8557 8555 8546 8551 8538 8556 8530 8546 8539 8533 8539 8553 8548 8557 8532 8551 8522 8560 8540 8553 8553 8559 8555 8547 8557 8537 8550 8544 8531 8547 8556 8546 8566 8557 8546 8532
10 2 8536 8526 8538 8553 8551 8550 8541 8545 8533 8551 8525 8541 8534 8527 8534 8547 8543 8551 8526 8545 8517 8555 8534 8548 8548 8554 8549 8542 8551 8531 8545 8538 8525 8542 8550 8540 8560 8552 8540 8527
11 8545 8535 8546 8562 8560 8559 8549 8554 8541 8559 8533 8550 8543 8536 8542 8556 8551 8560 8535 8554 8525 8563 8543 8556 8556 8563 8558 8551 8560 8540 8554 8547 8534 8550 8559 8549 8569 8560 8549 8535
8534 8524 8536 8551 8549 8548 8539 8543 8531 8549 8523 8539 8532 8525 8532 8545 8541 8549 8524 8544 8515 8553 8532 8546 8546 8552 8548 8540 8549 8529 8543 8536 8523 8540 8549 8538 8559 8550 8538 8525
15 5 17 34 23 25 11 13 19 20 5 4 11 8 11 19 16 13 10 20 21 28 12 19 18 15 21 17 9 9 13 22 10 21 26 25 28 4 10
13 29 32 25 20 20 7 24 6 18 11 4 9 23 18 26 3 21 17 29 18 24 22 29 24 18 25 6 21 12 8 16 25 20 35 28 18 8
16 29 18 20 8 9 15 18 5 4 10 5 10 14 14 12 8 22 18 23 11 14 16 12 15 14 7 8 8 19 5 17 21 23 23 5 11
31 19 28 10 24 13 33 12 20 27 21 6 21 6 28 9 37 11 34 6 16 4 8 23 7 24 9 20 34 14 16 28 10 23 13 27
12 12 25 26 18 30 31 32 34 29 30 16 25 33 28 48 20 17 29 16 27 24 14 24 30 30 22 29 25 15 12 25 7 32 37
11 13 18 6 25 20 22 25 20 18 7 13 26 16 39 9 18 17 4 15 12 8 11 22 18 13 25 13 3 12 15 5 21 28
19 14 16 18 23 22 22 19 25 7 22 21 22 36 20 7 24 12 25 20 5 20 19 24 12 16 17 13 1 26 11 24 25
14 8 23 7 12 18 12 6 12 6 19 3 30 10 24 5 9 9 4 14 6 14 5 9 23 4 11 20 15 18 8 19
18 9 14 9 8 6 19 11 20 8 16 22 22 15 19 15 23 18 12 19 5 17 6 9 10 18 15 28 22 15 11
26 15 19 24 18 12 10 7 25 10 37 4 22 11 4 9 6 11 5 20 12 12 26 10 3 17 11 11 16 26
23 16 10 13 28 18 29 9 25 21 31 14 28 23 32 27 17 28 11 25 14 2 19 26 18 37 28 23 14
8 15 9 6 16 11 16 5 25 17 27 7 15 13 10 18 12 12 4 12 24 7 17 24 21 24 1 15
7 3 14 16 17 9 12 18 22 24 14 18 20 16 18 18 5 11 10 17 9 20 23 27 26 7 7
6 21 19 24 2 18 14 28 22 21 22 27 22 19 24 4 18 12 12 14 25 23 33 29 14 4
15 14 18 7 12 20 21 21 15 16 21 16 15 18 3 13 7 14 8 19 19 27 24 9 8
18 7 22 3 31 13 30 2 14 8 7 20 8 18 2 15 28 9 16 26 15 23 7 21
15 19 14 33 14 13 16 6 18 13 2 14 15 16 7 17 10 8 8 21 11 17 21
25 6 35 6 28 5 10 3 2 17 1 20 8 15 29 10 10 22 9 18 12 25
20 15 28 21 22 22 28 23 19 25 5 20 13 10 15 25 22 34 29 16 5
29 12 27 3 11 8 5 16 7 15 2 12 25 6 13 22 16 21 6 19
40 35 31 36 38 34 34 36 18 28 26 23 27 38 37 45 43 24 12
27 11 8 7 6 16 5 24 13 16 30 13 7 21 7 13 18 29
29 19 31 26 11 27 20 28 16 13 21 20 6 33 18 28 25
13 6 5 19 6 18 3 14 28 8 14 25 14 22 8 21
13 8 8 8 18 14 10 23 9 3 13 15 9 16 24
5 20 4 23 9 18 32 13 13 26 8 20 14 27
15 2 18 7 13 27 8 9 21 11 17 11 23
16 16 19 8 17 12 9 6 22 10 19 22
20 9 14 28 9 9 21 9 16 13 25
15 8 12 11 21 20 29 25 12 7
13 26 7 15 24 17 23 5 18
14 6 13 13 23 17 12 15
20 25 16 37 27 24 15
12 17 19 18 8 16
14 13 8 18 27
27 11 25 26
18 21 34
25 32
14

EOF
