NAME: clustered_50_s0
TYPE: TSP
DIMENSION: 50
EDGE_WEIGHT_TYPE: EXPLICIT
EDGE_WEIGHT_FORMAT: UPPER_ROW
EDGE_WEIGHT_SECTION
12 11 19 13 30 21 13 10 15 3789 3778 3789 3784 3793 3791 3786 3803 3801 3796 6687 6679 6661 6680 6682 6679 6672 6664 6663 6670 8002 8029 8013 8003 8035 8040 8017 8017 8036 8031 7572 7550 7569 7553 7540 7569 7548 7550 7561 7553
19 16 3 19 13 7 12 11 3788 3776 3788 3783 3791 3790 3784 3801 3800 3795 6680 6673 6654 6673 6675 6672 6665 6658 6656 6663 7993 8021 8005 7994 8027 8032 8009 8008 8027 8023 7574 7552 7571 7555 7542 7571 7550 7552 7563 7555
30 21 38 31 22 9 15 3780 3769 3780 3776 3784 3782 3777 3794 3792 3787 6681 6674 6656 6674 6677 6673 6667 6659 6657 6665 7998 8026 8010 7999 8032 8037 8014 8013 8033 8028 7561 7539 7558 7543 7530 7559 7537 7539 7551 7543
13 19 8 10 26 27 3804 3792 3804 3799 3807 3806 3800 3818 3816 3811 6694 6687 6669 6688 6690 6686 6680 6672 6671 6678 8006 8033 8017 8007 8039 8044 8022 8021 8040 8036 7589 7567 7586 7571 7558 7587 7565 7567 7579 7571
17 10 4 14 14 3791 3779 3791 3786 3794 3793 3787 3805 3803 3798 6683 6675 6657 6676 6678 6675 6668 6660 6659 6666 7995 8023 8007 7996 8029 8034 8011 8010 8030 8025 7577 7555 7574 7559 7545 7575 7553 7555 7567 7558
12 18 30 27 3795 3783 3795 3790 3799 3797 3791 3809 3807 3802 6679 6672 6653 6672 6674 6671 6664 6657 6655 6662 7988 8016 8000 7989 8022 8027 8004 8003 8023 8018 7586 7564 7583 7568 7554 7584 7562 7564 7575 7567
8 24 24 3799 3788 3799 3794 3803 3801 3796 3813 3811 3806 6688 6680 6662 6681 6683 6679 6673 6665 6664 6671 7999 8026 8010 7999 8032 8037 8014 8013 8033 8028 7587 7565 7584 7568 7555 7584 7563 7565 7576 7568
17 17 3794 3783 3794 3790 3798 3796 3791 3808 3807 3802 6686 6679 6661 6679 6682 6678 6671 6664 6662 6670 7999 8026 8010 8000 8032 8037 8014 8014 8033 8028 7580 7558 7577 7562 7548 7578 7556 7558 7570 7561
6 3780 3768 3780 3775 3784 3782 3776 3794 3792 3787 6677 6670 6652 6670 6673 6669 6662 6655 6653 6661 7993 8020 8004 7994 8026 8031 8008 8008 8027 8022 7564 7542 7561 7546 7532 7561 7540 7542 7553 7545
3777 3766 3777 3773 3781 3779 3774 3791 3789 3785 6672 6665 6647 6665 6668 6664 6657 6650 6648 6656 7987 8014 7998 7988 8020 8025 8003 8002 8021 8017 7563 7541 7560 7545 7531 7560 7539 7541 7552 7544
19 14 19 12 7 16 14 26 8 3709 3702 3696 3711 3719 3708 3711 3702 3690 3702 5548 5568 5553 5543 5576 5575 5560 5563 5579 5567 4113 4094 4112 4099 4083 4113 4093 4098 4103 4091
12 8 16 16 8 29 25 27 3703 3696 3690 3705 3713 3702 3705 3697 3685 3697 5540 5560 5545 5534 5567 5567 5552 5554 5571 5559 4131 4112 4130 4117 4101 4131 4111 4116 4121 4110
7 4 7 4 18 15 19 3698 3691 3685 3700 3708 3697 3700 3691 3679 3691 5536 5556 5541 5531 5564 5563 5548 5550 5567 5555 4120 4101 4120 4106 4091 4121 4100 4105 4110 4099
11 13 4 25 17 26 3696 3689 3684 3699 3707 3696 3699 3690 3678 3690 5534 5554 5539 5528 5561 5561 5546 5548 5565 5553 4127 4108 4126 4113 4097 4128 4107 4112 4117 4106
4 8 13 15 15 3698 3691 3685 3700 3708 3697 3700 3691 3679 3692 5537 5557 5542 5531 5564 5564 5549 5551 5568 5556 4116 4097 4115 4102 4086 4116 4096 4101 4106 4095
10 13 19 12 3702 3695 3689 3704 3712 3701 3704 3695 3683 3696 5541 5561 5546 5536 5569 5568 5553 5555 5572 5560 4115 4096 4114 4101 4085 4115 4095 4100 4105 4094
22 18 22 3698 3692 3686 3701 3709 3698 3701 3692 3680 3692 5536 5556 5541 5531 5564 5563 5548 5551 5567 5555 4124 4105 4123 4110 4095 4125 4104 4109 4114 4103
20 9 3698 3692 3686 3701 3709 3698 3701 3692 3680 3692 5540 5560 5545 5534 5567 5567 5552 5554 5571 5559 4103 4084 4102 4089 4073 4103 4083 4088 4093 4081
27 3683 3676 3670 3685 3693 3682 3686 3677 3665 3677 5522 5543 5528 5517 5550 5550 5534 5537 5554 5541 4115 4096 4114 4101 4086 4116 4095 4100 4105 4094
3707 3701 3695 3710 3718 3707 3710 3701 3689 3701 5548 5569 5554 5543 5576 5576 5560 5563 5580 5567 4105 4086 4104 4091 4075 4105 4085 4090 4095 4083
7 34 20 32 16 37 37 25 25 1987 2000 1988 1978 2008 2003 1995 2000 2013 1996 5396 5391 5401 5398 5382 5403 5394 5404 5391 5375
29 19 32 15 36 33 18 22 1992 2005 1993 1983 2013 2008 2000 2005 2018 2001 5394 5389 5398 5395 5379 5401 5391 5401 5388 5373
19 23 19 16 8 16 10 1985 1998 1985 1975 2005 2001 1993 1997 2010 1994 5412 5407 5416 5413 5397 5419 5409 5419 5406 5391
13 4 18 19 21 10 1976 1989 1977 1967 1997 1993 1985 1989 2002 1986 5413 5408 5417 5414 5398 5420 5410 5420 5407 5391
17 11 18 32 17 1965 1978 1965 1955 1985 1981 1973 1977 1990 1974 5426 5421 5430 5427 5411 5433 5423 5433 5420 5404
21 21 18 10 1980 1993 1981 1971 2001 1997 1989 1993 2006 1990 5408 5403 5413 5410 5394 5415 5406 5416 5403 5387
9 29 16 1968 1981 1969 1959 1989 1985 1977 1981 1994 1978 5426 5421 5431 5427 5411 5433 5424 5434 5421 5405
23 12 1977 1990 1977 1968 1998 1994 1985 1989 2003 1987 5420 5415 5424 5421 5405 5426 5417 5427 5414 5398
14 1996 2009 1997 1987 2017 2013 2004 2009 2022 2006 5397 5392 5402 5398 5382 5404 5394 5404 5391 5376
1982 1995 1982 1973 2002 1998 1990 1994 2008 1991 5411 5406 5415 5412 5396 5418 5408 5418 5405 5389
29 16 15 34 42 16 15 34 35 7276 7274 7281 7280 7264 7284 7276 7286 7271 7256
16 27 8 13 13 18 13 8 7281 7278 7286 7284 7269 7288 7281 7291 7276 7261
11 23 28 8 15 26 20 7272 7269 7277 7275 7260 7279 7272 7282 7267 7252
34 38 18 22 37 29 7264 7261 7269 7267 7252 7271 7264 7274 7259 7244
13 18 20 7 13 7288 7285 7293 7291 7276 7295 7288 7298 7283 7268
26 31 19 9 7280 7278 7285 7284 7269 7288 7281 7291 7276 7260
7 19 20 7280 7277 7285 7283 7268 7287 7280 7290 7275 7260
19 26 7286 7283 7291 7289 7274 7293 7286 7296 7281 7265
20 7294 7292 7299 7298 7282 7302 7294 7305 7289 7274
7275 7273 7280 7279 7264 7283 7275 7286 7270 7255
23 8 22 32 10 27 31 10 23
19 6 11 20 4 14 14 21
16 29 3 21 24 10 26
17 16 6 10 15 26
30 12 22 21 20
22 23 13 28
11 18 25
25 35
16

EOF
