NAME: clustered_150_s2
TYPE: TSP
DIMENSION: 150
EDGE_WEIGHT_TYPE: EXPLICIT
EDGE_WEIGHT_FORMAT: UPPER_ROW
EDGE_WEIGHT_SECTION
42 32 20 25 17 25 21 16 29 29 33 26 16 29 35 28 33 21 43 14 34 38 39 18 37 35 39 17 25 3882 3884 3859 3880 3890 3891 3879 3900 3891 3876 3889 3889 3883 3872 3880 3880 3889 3883 3886 3882 3891 3906 3873 3872 3876 3865 3889 3897 3890 3887 7568 7563 7572 7591 7575 7588 7580 7564 7575 7568 7575 7587 7575 7573 7573 7576 7586 7566 7569 7567 7573 7588 7571 7581 7577 7566 7569 7590 7562 7576 7700 7687 7701 7697 7711 7702 7690 7701 7703 7685 7683 7706 7696 7705 7691 7715 7708 7698 7691 7696 7695 7690 7731 7699 7683 7692 7677 7701 7705 7682 1975 1975 1964 1954 1977 1960 1953 1955 1958 1956 1959 1965 1982 1964 1959 1974 1974 1942 1965 1958 1972 1994 1979 1972 1949 1974 1973 1958 1982 1968
22 23 17 29 18 22 26 14 16 28 28 44 14 8 18 20 33 17 34 24 20 37 27 16 17 10 28 18 3880 3882 3857 3877 3887 3888 3877 3898 3889 3873 3887 3887 3880 3870 3877 3878 3886 3881 3884 3880 3889 3904 3871 3870 3874 3862 3887 3895 3888 3884 7527 7522 7531 7550 7534 7547 7539 7523 7534 7527 7534 7546 7534 7533 7532 7535 7546 7526 7529 7526 7532 7547 7530 7540 7537 7526 7528 7549 7522 7535 7658 7645 7659 7655 7669 7660 7648 7659 7661 7643 7641 7664 7654 7663 7649 7673 7666 7656 7649 7654 7653 7648 7689 7657 7641 7650 7635 7659 7663 7640 1957 1957 1946 1935 1959 1942 1935 1937 1940 1938 1941 1946 1964 1946 1941 1957 1956 1924 1947 1940 1954 1976 1961 1954 1931 1955 1955 1939 1963 1950
15 17 16 12 16 17 13 7 7 34 27 13 14 7 2 14 12 19 3 6 16 26 7 5 27 15 14 3897 3899 3874 3894 3904 3905 3894 3914 3906 3890 3903 3904 3897 3886 3894 3894 3903 3898 3901 3896 3906 3921 3888 3887 3891 3879 3904 3912 3905 3901 7545 7540 7549 7568 7552 7565 7557 7541 7552 7545 7552 7564 7552 7550 7550 7553 7563 7543 7546 7543 7550 7565 7548 7558 7554 7543 7546 7567 7539 7553 7674 7661 7675 7671 7685 7676 7664 7675 7676 7659 7657 7680 7670 7679 7665 7689 7681 7672 7665 7670 7669 7664 7705 7673 7657 7666 7651 7675 7679 7656 1978 1978 1966 1956 1979 1963 1955 1958 1961 1959 1961 1967 1984 1967 1962 1977 1977 1944 1968 1961 1975 1997 1982 1974 1952 1976 1976 1960 1984 1971
7 7 5 3 4 9 10 19 21 22 9 15 8 15 14 24 12 17 19 27 11 18 16 23 6 5 3885 3887 3862 3882 3892 3894 3882 3903 3894 3879 3892 3892 3885 3875 3882 3883 3891 3886 3889 3885 3894 3909 3876 3875 3879 3867 3892 3900 3893 3889 7550 7545 7553 7573 7556 7570 7562 7546 7557 7550 7557 7569 7557 7555 7555 7558 7568 7548 7551 7548 7555 7570 7553 7563 7559 7548 7550 7572 7544 7557 7681 7668 7682 7678 7691 7683 7671 7682 7683 7666 7663 7687 7676 7685 7672 7696 7688 7678 7672 7677 7676 7671 7712 7680 7664 7673 7658 7682 7686 7663 1970 1970 1959 1948 1972 1955 1948 1950 1953 1951 1954 1960 1977 1959 1954 1970 1969 1937 1960 1953 1967 1989 1974 1967 1945 1969 1968 1953 1977 1963
14 6 5 10 5 10 23 17 30 5 10 10 16 21 22 19 20 20 32 11 17 16 15 13 3 3880 3882 3857 3877 3887 3889 3877 3898 3889 3874 3887 3887 3880 3870 3877 3878 3887 3881 3884 3880 3889 3904 3871 3870 3874 3862 3887 3895 3888 3884 7543 7538 7547 7566 7550 7563 7555 7539 7550 7543 7550 7562 7550 7549 7548 7551 7562 7542 7545 7542 7548 7563 7546 7556 7553 7542 7544 7565 7538 7551 7675 7662 7676 7672 7685 7676 7664 7676 7677 7660 7657 7681 7670 7679 7666 7690 7682 7672 7665 7670 7670 7664 7706 7674 7658 7666 7651 7676 7679 7657 1964 1964 1952 1942 1965 1948 1941 1944 1946 1945 1947 1953 1970 1953 1948 1963 1963 1930 1953 1946 1961 1983 1967 1960 1938 1962 1961 1946 1970 1957
10 9 5 15 14 17 25 16 15 21 12 17 9 27 5 18 21 25 15 21 18 29 1 11 3889 3891 3866 3887 3897 3898 3886 3907 3898 3883 3896 3896 3890 3879 3887 3887 3896 3890 3893 3889 3898 3913 3880 3879 3883 3872 3896 3904 3897 3894 7556 7551 7560 7579 7562 7576 7568 7552 7563 7556 7563 7575 7563 7561 7561 7564 7574 7554 7557 7554 7561 7576 7559 7569 7565 7554 7556 7578 7550 7563 7686 7674 7687 7684 7697 7688 7676 7687 7689 7672 7669 7692 7682 7691 7677 7702 7694 7684 7677 7682 7682 7676 7718 7686 7669 7678 7663 7687 7691 7669 1976 1976 1965 1954 1978 1961 1954 1956 1959 1957 1960 1965 1983 1965 1960 1975 1975 1943 1966 1959 1973 1995 1980 1972 1950 1974 1974 1959 1982 1969
5 9 5 5 17 22 26 4 10 5 12 16 19 16 15 16 26 14 13 12 20 10 2 3886 3888 3863 3883 3893 3894 3883 3903 3895 3879 3892 3893 3886 3875 3883 3883 3892 3887 3890 3885 3895 3910 3877 3876 3880 3868 3893 3901 3894 3890 7545 7541 7549 7568 7552 7565 7557 7542 7553 7546 7552 7564 7552 7551 7551 7554 7564 7544 7547 7544 7550 7565 7549 7559 7555 7544 7546 7568 7540 7553 7676 7663 7677 7673 7687 7678 7666 7677 7679 7661 7659 7682 7672 7681 7667 7691 7684 7674 7667 7672 7671 7666 7707 7675 7659 7668 7653 7677 7681 7658 1969 1969 1958 1947 1971 1954 1947 1949 1952 1950 1953 1958 1976 1958 1953 1968 1968 1936 1959 1952 1966 1988 1973 1965 1943 1967 1967 1951 1975 1962
5 8 10 21 18 24 8 14 10 16 17 24 14 19 21 30 9 19 17 20 8 4 3882 3884 3859 3880 3890 3891 3880 3900 3891 3876 3889 3890 3883 3872 3880 3880 3889 3883 3887 3882 3891 3907 3873 3873 3876 3865 3890 3898 3890 3887 7548 7544 7552 7571 7555 7568 7560 7544 7556 7549 7555 7567 7555 7554 7554 7556 7567 7547 7550 7547 7553 7568 7551 7561 7558 7547 7549 7571 7543 7556 7680 7667 7681 7677 7690 7681 7669 7681 7682 7665 7662 7686 7675 7684 7671 7695 7687 7677 7670 7675 7675 7669 7711 7679 7663 7671 7656 7681 7684 7662 1968 1968 1956 1946 1969 1952 1945 1948 1950 1948 1951 1957 1974 1957 1952 1967 1967 1934 1957 1950 1965 1987 1971 1964 1942 1966 1965 1950 1974 1961
13 13 20 21 20 12 19 12 18 13 27 9 20 22 28 10 21 19 25 4 9 3885 3887 3862 3882 3892 3893 3882 3903 3894 3878 3891 3892 3885 3875 3882 3882 3891 3886 3889 3885 3894 3909 3876 3875 3879 3867 3892 3900 3893 3889 7553 7549 7557 7576 7560 7573 7565 7549 7561 7554 7560 7572 7560 7559 7559 7561 7572 7552 7555 7552 7558 7573 7556 7566 7563 7552 7554 7576 7548 7561 7684 7672 7685 7682 7695 7686 7674 7685 7687 7670 7667 7690 7680 7689 7675 7700 7692 7682 7675 7680 7680 7674 7716 7684 7667 7676 7661 7685 7689 7667 1972 1971 1960 1950 1973 1956 1949 1951 1954 1952 1955 1961 1978 1961 1956 1971 1971 1938 1961 1954 1969 1990 1975 1968 1946 1970 1969 1954 1978 1964
6 19 22 31 1 6 6 12 21 17 20 16 16 29 16 12 11 15 15 4 3884 3886 3860 3881 3891 3892 3881 3901 3893 3877 3890 3891 3884 3873 3881 3881 3890 3885 3888 3883 3892 3908 3875 3874 3878 3866 3891 3899 3892 3888 7541 7536 7544 7563 7547 7560 7552 7537 7548 7541 7548 7560 7547 7546 7546 7549 7559 7539 7542 7539 7546 7561 7544 7554 7550 7539 7541 7563 7535 7548 7671 7659 7672 7669 7682 7673 7661 7672 7674 7657 7654 7677 7667 7676 7662 7687 7679 7669 7662 7667 7667 7661 7703 7671 7654 7663 7648 7673 7676 7654 1966 1966 1954 1944 1967 1950 1943 1945 1948 1946 1949 1955 1972 1955 1950 1965 1965 1932 1955 1948 1963 1984 1969 1962 1940 1964 1963 1948 1972 1959
14 27 28 6 8 2 7 17 14 18 11 11 23 20 8 6 20 13 7 3889 3891 3866 3887 3897 3898 3886 3907 3898 3883 3896 3896 3889 3879 3887 3887 3896 3890 3893 3889 3898 3913 3880 3879 3883 3872 3896 3904 3897 3894 7543 7538 7546 7565 7549 7563 7554 7539 7550 7543 7550 7562 7550 7548 7548 7551 7561 7541 7544 7541 7548 7563 7546 7556 7552 7541 7543 7565 7537 7550 7673 7660 7674 7670 7683 7675 7663 7674 7675 7658 7655 7679 7668 7677 7664 7688 7680 7670 7664 7669 7668 7663 7704 7672 7656 7665 7650 7674 7678 7655 1971 1971 1959 1949 1973 1956 1948 1951 1954 1952 1954 1960 1978 1960 1955 1970 1970 1937 1961 1954 1968 1990 1975 1967 1945 1969 1969 1953 1977 1964
39 24 20 21 13 8 12 16 19 5 9 9 30 12 11 34 17 19 3903 3905 3880 3900 3910 3911 3900 3921 3912 3896 3909 3910 3903 3893 3900 3900 3909 3904 3907 3902 3912 3927 3894 3893 3897 3885 3910 3918 3911 3907 7550 7545 7553 7572 7556 7570 7561 7546 7557 7550 7557 7569 7557 7555 7555 7558 7568 7548 7551 7548 7555 7570 7553 7563 7559 7548 7550 7572 7544 7557 7678 7665 7679 7675 7689 7680 7668 7679 7680 7663 7661 7684 7674 7683 7669 7693 7686 7676 7669 7674 7673 7668 7709 7677 7661 7670 7655 7679 7683 7660 1985 1985 1973 1963 1986 1969 1962 1965 1967 1966 1968 1974 1991 1974 1969 1984 1984 1951 1975 1967 1982 2004 1988 1981 1959 1983 1982 1967 1991 1978
38 21 26 27 34 34 39 29 37 37 48 10 34 33 19 25 20 3864 3866 3841 3862 3872 3873 3861 3882 3873 3858 3871 3871 3865 3854 3862 3862 3871 3865 3868 3864 3873 3888 3855 3854 3858 3847 3871 3879 3872 3869 7545 7540 7548 7567 7551 7565 7556 7541 7552 7545 7552 7564 7551 7550 7550 7553 7563 7543 7546 7543 7550 7565 7548 7558 7554 7543 7545 7567 7539 7552 7679 7666 7680 7676 7689 7681 7668 7680 7681 7664 7661 7685 7674 7683 7670 7694 7686 7676 7670 7674 7674 7668 7710 7678 7662 7670 7655 7680 7683 7661 1952 1951 1940 1930 1953 1936 1929 1931 1934 1932 1935 1941 1958 1941 1936 1951 1951 1918 1941 1934 1949 1970 1955 1948 1926 1950 1949 1934 1958 1944
30 36 26 28 12 38 11 27 32 26 28 33 31 45 16 27 3898 3900 3875 3896 3906 3907 3895 3916 3907 3892 3905 3905 3899 3888 3896 3896 3905 3899 3902 3898 3907 3922 3889 3888 3892 3881 3905 3913 3906 3903 7571 7566 7575 7594 7577 7591 7583 7567 7578 7571 7578 7590 7578 7576 7576 7579 7589 7569 7572 7569 7576 7591 7574 7584 7580 7569 7572 7593 7565 7578 7701 7688 7702 7698 7711 7702 7690 7702 7703 7686 7683 7707 7696 7705 7692 7716 7708 7698 7691 7696 7696 7690 7732 7700 7684 7692 7677 7702 7705 7683 1989 1989 1978 1967 1991 1974 1967 1969 1972 1970 1973 1979 1996 1978 1973 1989 1988 1956 1979 1972 1986 2008 1993 1986 1963 1988 1987 1972 1996 1982
6 6 13 20 18 20 16 16 29 16 13 12 15 14 4 3883 3885 3860 3881 3891 3892 3881 3901 3892 3877 3890 3890 3884 3873 3881 3881 3890 3884 3888 3883 3892 3907 3874 3873 3877 3866 3891 3898 3891 3888 7541 7536 7545 7564 7548 7561 7553 7537 7548 7541 7548 7560 7548 7546 7546 7549 7560 7539 7542 7540 7546 7561 7544 7554 7551 7540 7542 7563 7536 7549 7672 7659 7673 7669 7683 7674 7662 7673 7674 7657 7655 7678 7668 7677 7663 7687 7680 7670 7663 7668 7667 7662 7703 7671 7655 7664 7649 7673 7677 7654 1966 1966 1954 1943 1967 1950 1943 1945 1948 1946 1949 1955 1972 1955 1949 1965 1964 1932 1955 1948 1963 1984 1969 1962 1940 1964 1963 1948 1972 1958
10 13 25 14 26 17 14 30 21 10 10 14 20 10 3884 3886 3861 3882 3892 3893 3881 3902 3893 3878 3891 3891 3884 3874 3881 3882 3891 3885 3888 3884 3893 3908 3875 3874 3878 3866 3891 3899 3892 3888 7535 7531 7539 7558 7542 7555 7547 7531 7543 7535 7542 7554 7542 7541 7540 7543 7554 7534 7537 7534 7540 7555 7538 7548 7545 7534 7536 7558 7530 7543 7666 7653 7667 7663 7676 7668 7656 7667 7668 7651 7648 7672 7661 7670 7657 7681 7673 7663 7657 7662 7661 7656 7697 7665 7649 7658 7643 7667 7671 7648 1964 1964 1952 1942 1965 1949 1941 1944 1947 1945 1947 1953 1970 1953 1948 1963 1963 1930 1954 1947 1961 1983 1968 1960 1938 1962 1962 1946 1970 1957
7 15 15 17 10 11 22 19 9 7 22 12 7 3890 3892 3866 3887 3897 3898 3887 3907 3899 3883 3896 3897 3890 3879 3887 3887 3896 3891 3894 3889 3898 3914 3881 3880 3884 3872 3897 3905 3898 3894 7544 7540 7548 7567 7551 7564 7556 7541 7552 7545 7552 7563 7551 7550 7550 7553 7563 7543 7546 7543 7550 7565 7548 7558 7554 7543 7545 7567 7539 7552 7675 7662 7676 7672 7685 7676 7664 7676 7677 7660 7657 7681 7670 7679 7666 7690 7682 7672 7665 7670 7670 7664 7706 7674 7658 7666 7651 7676 7679 7657 1972 1972 1960 1950 1974 1957 1949 1952 1955 1953 1955 1961 1979 1961 1956 1971 1971 1938 1962 1955 1969 1991 1976 1968 1946 1970 1970 1954 1978 1965
16 10 20 4 5 17 26 5 3 26 16 13 3896 3898 3873 3893 3903 3904 3893 3914 3905 3889 3902 3903 3896 3886 3893 3893 3902 3897 3900 3896 3905 3920 3887 3886 3890 3878 3903 3911 3904 3900 7543 7539 7547 7566 7550 7563 7555 7539 7550 7543 7550 7562 7550 7549 7548 7551 7562 7542 7545 7542 7548 7563 7546 7556 7553 7542 7544 7565 7538 7551 7672 7659 7673 7670 7683 7674 7662 7673 7675 7657 7655 7678 7668 7677 7663 7687 7680 7670 7663 7668 7667 7662 7704 7672 7655 7664 7649 7673 7677 7654 1976 1976 1965 1954 1978 1961 1954 1956 1959 1957 1960 1966 1983 1965 1960 1976 1975 1943 1966 1959 1973 1995 1980 1973 1951 1975 1974 1959 1983 1969
26 8 15 20 17 24 21 19 36 9 18 3898 3900 3875 3896 3905 3907 3895 3916 3907 3892 3905 3905 3898 3888 3895 3896 3905 3899 3902 3898 3907 3922 3889 3888 3892 3880 3905 3913 3906 3902 7559 7554 7563 7582 7566 7579 7571 7555 7566 7559 7566 7578 7566 7565 7564 7567 7577 7557 7560 7558 7564 7579 7562 7572 7568 7558 7560 7581 7554 7567 7688 7676 7689 7686 7699 7690 7678 7689 7691 7674 7671 7694 7684 7693 7679 7703 7696 7686 7679 7684 7683 7678 7720 7688 7671 7680 7665 7689 7693 7670 1985 1984 1973 1963 1986 1969 1962 1964 1967 1965 1968 1974 1991 1974 1969 1984 1984 1951 1974 1967 1982 2003 1988 1981 1959 1983 1982 1967 1991 1977
31 12 7 22 33 6 8 26 26 20 3897 3899 3873 3894 3904 3905 3894 3914 3906 3890 3903 3904 3897 3886 3894 3894 3903 3898 3901 3896 3905 3921 3888 3887 3891 3879 3904 3912 3905 3901 7534 7529 7537 7556 7540 7553 7545 7530 7541 7534 7541 7553 7540 7539 7539 7542 7552 7532 7535 7532 7539 7554 7537 7547 7543 7532 7534 7556 7528 7541 7662 7650 7663 7660 7673 7664 7652 7663 7665 7648 7645 7668 7658 7667 7653 7677 7670 7660 7653 7658 7657 7652 7694 7662 7645 7654 7639 7663 7667 7644 1973 1973 1962 1951 1975 1958 1951 1953 1956 1954 1957 1963 1980 1962 1957 1973 1972 1940 1963 1956 1970 1992 1977 1970 1948 1971 1971 1956 1980 1966
21 25 25 18 25 22 34 6 17 3892 3894 3869 3889 3899 3900 3889 3910 3901 3885 3898 3899 3892 3882 3889 3889 3898 3893 3896 3891 3901 3916 3883 3882 3886 3874 3899 3907 3900 3896 7561 7556 7565 7584 7568 7581 7573 7557 7568 7561 7568 7580 7568 7566 7566 7569 7579 7559 7562 7560 7566 7581 7564 7574 7570 7559 7562 7583 7555 7569 7691 7679 7692 7689 7702 7693 7681 7692 7694 7677 7674 7697 7687 7696 7682 7706 7699 7689 7682 7687 7687 7681 7723 7691 7674 7683 7668 7692 7696 7673 1980 1980 1969 1958 1982 1965 1958 1960 1963 1961 1964 1970 1987 1969 1964 1979 1979 1947 1970 1963 1977 1999 1984 1976 1954 1979 1978 1963 1986 1973
5 13 29 8 7 30 18 17 3900 3902 3877 3897 3907 3908 3897 3918 3909 3893 3906 3907 3900 3890 3897 3897 3906 3901 3904 3899 3909 3924 3891 3890 3894 3882 3907 3915 3908 3904 7545 7541 7549 7568 7552 7565 7557 7541 7553 7546 7552 7564 7552 7551 7551 7553 7564 7544 7547 7544 7550 7565 7548 7558 7555 7544 7546 7568 7540 7553 7674 7661 7675 7671 7684 7676 7664 7675 7676 7659 7656 7680 7669 7678 7665 7689 7681 7671 7665 7670 7669 7664 7705 7673 7657 7666 7651 7675 7679 7656 1980 1980 1969 1958 1982 1965 1958 1960 1963 1961 1964 1970 1987 1969 1964 1980 1979 1947 1970 1963 1977 1999 1984 1977 1955 1979 1978 1963 1987 1973
16 30 4 5 28 21 18 3898 3901 3875 3896 3906 3907 3896 3916 3907 3892 3905 3906 3899 3888 3896 3896 3905 3900 3903 3898 3907 3923 3890 3889 3892 3881 3906 3914 3906 3903 7540 7536 7544 7563 7547 7560 7552 7537 7548 7541 7548 7559 7547 7546 7546 7549 7559 7539 7542 7539 7546 7560 7544 7554 7550 7539 7541 7563 7535 7548 7669 7656 7670 7666 7680 7671 7659 7670 7671 7654 7652 7675 7665 7674 7660 7684 7677 7667 7660 7665 7664 7659 7700 7668 7652 7661 7646 7670 7674 7651 1978 1978 1966 1955 1979 1962 1955 1957 1960 1959 1961 1967 1984 1967 1961 1977 1976 1944 1967 1960 1975 1996 1981 1974 1952 1976 1975 1960 1984 1971
39 20 20 43 25 28 3912 3914 3889 3909 3919 3920 3909 3930 3921 3906 3919 3919 3912 3902 3909 3910 3918 3913 3916 3912 3921 3936 3903 3902 3906 3894 3919 3927 3920 3916 7554 7549 7557 7576 7560 7573 7565 7550 7561 7554 7561 7573 7560 7559 7559 7562 7572 7552 7555 7552 7559 7574 7557 7567 7563 7552 7554 7576 7548 7561 7681 7668 7682 7678 7691 7682 7670 7681 7683 7666 7663 7687 7676 7685 7672 7696 7688 7678 7671 7676 7676 7670 7712 7680 7664 7672 7657 7682 7685 7663 1994 1994 1982 1971 1995 1978 1971 1973 1976 1975 1977 1983 2000 1983 1977 1993 1993 1960 1983 1976 1991 2012 1997 1990 1968 1992 1991 1976 2000 1987
28 26 22 15 13 3874 3876 3851 3872 3882 3883 3871 3892 3883 3868 3881 3881 3875 3864 3872 3872 3881 3875 3879 3874 3883 3898 3865 3864 3868 3857 3881 3889 3882 3879 7550 7546 7554 7573 7557 7570 7562 7547 7558 7551 7557 7569 7557 7556 7556 7559 7569 7549 7552 7549 7556 7570 7554 7564 7560 7549 7551 7573 7545 7558 7683 7670 7684 7680 7694 7685 7673 7684 7686 7668 7666 7689 7679 7688 7674 7698 7691 7681 7674 7679 7678 7673 7714 7682 7666 7675 7660 7684 7688 7665 1962 1962 1950 1940 1964 1947 1939 1942 1945 1943 1945 1951 1969 1951 1946 1961 1961 1928 1952 1945 1959 1981 1966 1958 1936 1960 1960 1944 1968 1955
2 24 20 15 3895 3897 3871 3892 3902 3903 3892 3912 3904 3888 3901 3902 3895 3884 3892 3892 3901 3896 3899 3894 3903 3919 3886 3885 3888 3877 3902 3910 3903 3899 7538 7534 7542 7561 7545 7558 7550 7535 7546 7539 7545 7557 7545 7544 7544 7547 7557 7537 7540 7537 7544 7558 7542 7552 7548 7537 7539 7561 7533 7546 7667 7655 7668 7665 7678 7669 7657 7668 7670 7653 7650 7674 7663 7672 7659 7683 7675 7665 7658 7663 7663 7657 7699 7667 7650 7659 7644 7669 7672 7650 1974 1974 1962 1951 1975 1958 1951 1953 1956 1955 1957 1963 1980 1963 1957 1973 1972 1940 1963 1956 1971 1992 1977 1970 1948 1972 1971 1956 1980 1967
24 18 13 3894 3896 3871 3892 3902 3903 3891 3912 3903 3888 3901 3901 3894 3884 3892 3892 3901 3895 3898 3894 3903 3918 3885 3884 3888 3877 3901 3909 3902 3899 7540 7536 7544 7563 7547 7560 7552 7537 7548 7541 7547 7559 7547 7546 7546 7549 7559 7539 7542 7539 7545 7560 7544 7554 7550 7539 7541 7563 7535 7548 7670 7657 7671 7667 7680 7671 7659 7671 7672 7655 7652 7676 7665 7674 7661 7685 7677 7667 7660 7665 7665 7659 7701 7669 7653 7661 7646 7671 7674 7652 1974 1974 1963 1952 1976 1959 1951 1954 1957 1955 1957 1963 1981 1963 1958 1973 1973 1940 1964 1957 1971 1993 1978 1970 1948 1972 1972 1956 1980 1967
29 18 3871 3873 3847 3868 3878 3879 3868 3888 3880 3864 3877 3878 3871 3860 3868 3868 3877 3872 3875 3870 3879 3895 3862 3861 3864 3853 3878 3886 3879 3875 7529 7524 7533 7552 7536 7549 7541 7525 7536 7529 7536 7548 7536 7534 7534 7537 7547 7527 7530 7528 7534 7549 7532 7542 7539 7528 7530 7551 7523 7537 7662 7649 7662 7659 7672 7663 7651 7663 7664 7647 7644 7667 7657 7666 7652 7677 7669 7659 7652 7657 7657 7651 7693 7661 7644 7653 7638 7663 7666 7644 1950 1950 1939 1928 1952 1935 1928 1930 1933 1931 1934 1940 1957 1939 1934 1950 1949 1917 1940 1933 1947 1969 1954 1947 1925 1949 1948 1933 1957 1943
11 3889 3891 3866 3886 3896 3897 3886 3907 3898 3883 3896 3896 3889 3879 3886 3887 3895 3890 3893 3889 3898 3913 3880 3879 3883 3871 3896 3904 3897 3893 7555 7551 7559 7578 7562 7575 7567 7552 7563 7556 7562 7574 7562 7561 7561 7563 7574 7554 7557 7554 7560 7575 7559 7569 7565 7554 7556 7578 7550 7563 7686 7673 7687 7683 7697 7688 7676 7687 7688 7671 7669 7692 7682 7691 7677 7701 7693 7684 7677 7682 7681 7676 7717 7685 7669 7678 7663 7687 7691 7668 1976 1976 1964 1954 1977 1960 1953 1956 1958 1957 1959 1965 1982 1965 1960 1975 1975 1942 1965 1958 1973 1995 1979 1972 1950 1974 1974 1958 1982 1969
3883 3885 3860 3881 3891 3892 3881 3901 3892 3877 3890 3891 3884 3873 3881 3881 3890 3885 3888 3883 3892 3908 3875 3874 3877 3866 3891 3899 3891 3888 7545 7540 7548 7567 7551 7565 7556 7541 7552 7545 7552 7564 7551 7550 7550 7553 7563 7543 7546 7543 7550 7565 7548 7558 7554 7543 7545 7567 7539 7552 7676 7663 7677 7673 7686 7678 7665 7677 7678 7661 7658 7682 7671 7680 7667 7691 7683 7673 7667 7671 7671 7666 7707 7675 7659 7667 7652 7677 7681 7658 1967 1967 1956 1945 1969 1952 1945 1947 1950 1948 1951 1956 1974 1956 1951 1966 1966 1934 1957 1950 1964 1986 1971 1963 1941 1965 1965 1949 1973 1960
24 24 9 14 9 19 19 11 6 14 16 6 11 8 11 11 15 23 3 10 26 13 10 9 19 16 18 14 8 7379 7371 7383 7401 7389 7405 7391 7376 7383 7372 7379 7388 7375 7379 7385 7388 7394 7373 7382 7387 7383 7395 7377 7390 7394 7368 7374 7397 7374 7384 8051 8045 8045 8050 8050 8058 8047 8054 8057 8029 8039 8049 8043 8050 8036 8061 8066 8042 8049 8040 8054 8040 8071 8042 8024 8038 8028 8047 8054 8032 2193 2186 2197 2221 2188 2204 2212 2205 2202 2196 2201 2202 2195 2206 2215 2185 2200 2212 2188 2199 2198 2179 2192 2189 2206 2206 2199 2216 2186 2192
31 32 13 21 7 34 19 25 12 11 29 30 17 13 16 9 2 21 29 40 35 25 19 26 11 36 14 17 7402 7395 7407 7424 7413 7428 7414 7399 7406 7395 7403 7411 7399 7402 7408 7411 7418 7396 7405 7411 7406 7419 7400 7414 7417 7392 7398 7420 7398 7407 8074 8068 8068 8073 8073 8081 8070 8077 8080 8052 8062 8072 8066 8073 8059 8084 8089 8065 8072 8063 8077 8063 8094 8065 8047 8061 8051 8070 8077 8055 2203 2196 2206 2231 2198 2214 2222 2215 2212 2206 2210 2212 2205 2216 2225 2195 2210 2221 2198 2209 2208 2189 2202 2199 2216 2216 2209 2226 2196 2202
25 31 32 24 43 32 18 30 31 26 16 21 21 30 26 32 23 34 50 21 14 17 6 31 41 32 28 7380 7373 7384 7402 7390 7406 7392 7377 7384 7373 7380 7389 7377 7380 7386 7389 7395 7374 7383 7388 7384 7396 7378 7391 7395 7369 7375 7398 7375 7385 8049 8043 8043 8048 8049 8056 8046 8052 8055 8027 8037 8047 8041 8048 8034 8059 8064 8040 8047 8039 8052 8038 8069 8041 8022 8036 8026 8045 8052 8030 2173 2166 2177 2202 2168 2184 2192 2185 2183 2177 2181 2182 2176 2187 2195 2166 2181 2192 2168 2180 2178 2159 2173 2169 2187 2186 2179 2197 2167 2172
23 16 27 20 18 10 23 24 4 9 15 20 19 23 32 12 12 27 6 12 15 21 25 18 23 17 7370 7363 7375 7392 7380 7396 7382 7367 7374 7363 7370 7379 7367 7370 7376 7379 7385 7364 7373 7379 7374 7386 7368 7381 7385 7360 7365 7388 7366 7375 8042 8037 8036 8041 8042 8049 8039 8045 8048 8020 8030 8040 8034 8041 8027 8052 8057 8033 8040 8032 8045 8031 8062 8034 8015 8029 8019 8038 8045 8023 2188 2181 2191 2216 2183 2199 2207 2200 2197 2191 2195 2196 2190 2201 2209 2180 2195 2207 2183 2194 2193 2174 2187 2184 2201 2201 2194 2211 2181 2187
8 13 21 6 18 1 2 19 23 11 10 3 7 12 12 17 27 27 20 14 26 3 23 1 6 7392 7385 7397 7414 7402 7418 7404 7389 7396 7385 7392 7401 7389 7392 7398 7401 7407 7386 7395 7401 7396 7408 7390 7403 7407 7381 7387 7410 7388 7397 8064 8059 8059 8063 8064 8072 8061 8067 8071 8042 8053 8062 8057 8064 8050 8074 8080 8055 8063 8054 8067 8053 8084 8056 8037 8052 8041 8061 8068 8045 2204 2197 2208 2232 2199 2215 2223 2216 2213 2207 2212 2213 2206 2217 2226 2196 2211 2223 2199 2210 2209 2190 2203 2200 2217 2217 2210 2227 2197 2203
19 14 2 15 9 10 12 20 12 13 6 13 20 9 8 20 22 18 15 26 11 15 8 5 7384 7377 7389 7406 7394 7410 7396 7381 7388 7377 7384 7393 7381 7384 7390 7393 7400 7378 7387 7393 7388 7400 7382 7395 7399 7374 7379 7402 7380 7389 8057 8052 8051 8056 8057 8064 8054 8060 8063 8035 8046 8055 8049 8057 8042 8067 8072 8048 8055 8047 8060 8046 8077 8049 8030 8044 8034 8053 8060 8038 2202 2195 2206 2231 2197 2213 2221 2214 2212 2206 2210 2211 2204 2216 2224 2195 2210 2221 2197 2209 2207 2188 2201 2198 2216 2215 2208 2225 2196 2201
33 18 19 12 11 25 24 12 8 14 6 8 16 27 39 29 19 13 19 11 34 13 14 7397 7389 7401 7418 7407 7423 7409 7393 7401 7390 7397 7406 7393 7396 7403 7405 7412 7390 7400 7405 7401 7413 7395 7408 7411 7386 7392 7415 7392 7402 8068 8062 8062 8067 8067 8075 8064 8071 8074 8046 8056 8066 8060 8067 8053 8078 8083 8059 8066 8057 8071 8057 8088 8059 8041 8055 8045 8064 8071 8049 2197 2190 2200 2225 2192 2208 2216 2209 2206 2200 2204 2205 2199 2210 2218 2189 2204 2215 2192 2203 2202 2183 2196 2193 2210 2210 2203 2220 2190 2196
15 25 22 23 18 28 24 27 19 27 32 20 9 7 27 29 27 38 23 4 20 19 7377 7369 7381 7398 7387 7402 7388 7373 7381 7370 7377 7386 7373 7376 7383 7385 7392 7370 7380 7385 7381 7393 7375 7388 7391 7366 7372 7395 7372 7382 8051 8045 8045 8050 8050 8058 8048 8054 8057 8029 8039 8049 8043 8050 8036 8061 8066 8042 8049 8040 8054 8040 8071 8042 8024 8038 8028 8047 8054 8032 2208 2201 2211 2236 2203 2219 2227 2220 2217 2211 2215 2216 2210 2221 2229 2200 2215 2226 2203 2214 2213 2193 2207 2203 2221 2221 2214 2231 2201 2207
16 7 8 14 21 12 13 4 12 18 10 10 21 23 19 15 27 9 16 6 5 7386 7379 7391 7408 7397 7412 7398 7383 7390 7379 7387 7395 7383 7386 7392 7395 7402 7380 7389 7395 7390 7402 7384 7398 7401 7376 7382 7404 7382 7391 8059 8054 8053 8058 8059 8066 8056 8062 8066 8037 8048 8057 8052 8059 8044 8069 8074 8050 8057 8049 8062 8048 8079 8051 8032 8046 8036 8055 8062 8040 2203 2196 2207 2232 2198 2214 2222 2215 2213 2207 2211 2212 2205 2217 2225 2196 2211 2222 2198 2210 2208 2189 2202 2199 2217 2216 2209 2227 2197 2202
18 19 9 6 7 11 15 16 25 7 16 32 10 4 6 13 19 24 18 12 7378 7371 7383 7400 7388 7404 7390 7375 7382 7371 7378 7387 7375 7378 7384 7387 7394 7372 7381 7387 7382 7394 7376 7389 7393 7368 7373 7396 7374 7383 8049 8044 8043 8048 8049 8056 8046 8052 8056 8027 8038 8047 8042 8049 8035 8059 8065 8040 8047 8039 8052 8038 8069 8041 8022 8037 8026 8046 8052 8030 2187 2180 2191 2216 2182 2198 2206 2199 2197 2191 2195 2196 2189 2201 2209 2180 2195 2206 2182 2194 2192 2173 2186 2183 2201 2200 2193 2210 2181 2186
1 19 23 11 9 4 6 11 12 17 28 27 20 14 25 2 23 2 6 7392 7385 7397 7414 7403 7418 7404 7389 7396 7385 7393 7401 7389 7392 7398 7401 7408 7386 7395 7401 7396 7408 7390 7404 7407 7382 7388 7410 7388 7397 8065 8059 8059 8064 8064 8072 8061 8068 8071 8043 8053 8063 8057 8064 8050 8075 8080 8056 8063 8054 8068 8054 8085 8056 8038 8052 8042 8061 8068 8046 2204 2197 2207 2232 2198 2214 2223 2216 2213 2207 2211 2212 2206 2217 2225 2196 2211 2222 2198 2210 2209 2189 2203 2199 2217 2217 2209 2227 2197 2203
21 24 12 10 5 6 10 13 19 29 28 21 15 26 1 25 2 7 7394 7387 7398 7416 7404 7420 7406 7391 7398 7387 7394 7403 7391 7394 7400 7403 7409 7388 7397 7402 7398 7410 7392 7405 7409 7383 7389 7412 7389 7399 8066 8061 8060 8065 8066 8073 8063 8069 8073 8044 8055 8064 8059 8066 8051 8076 8082 8057 8064 8056 8069 8055 8086 8058 8039 8053 8043 8062 8069 8047 2204 2197 2208 2233 2199 2215 2223 2216 2214 2208 2212 2213 2207 2218 2226 2197 2212 2223 2199 2211 2209 2190 2204 2200 2218 2217 2210 2228 2198 2203
11 13 17 16 20 29 9 9 24 10 12 14 22 21 15 19 13 7373 7366 7378 7395 7384 7399 7385 7370 7377 7366 7374 7382 7370 7373 7379 7382 7389 7367 7376 7382 7377 7390 7371 7385 7388 7363 7369 7391 7369 7378 8045 8040 8040 8045 8045 8053 8042 8048 8052 8024 8034 8043 8038 8045 8031 8055 8061 8036 8044 8035 8049 8035 8066 8037 8019 8033 8023 8042 8049 8027 2191 2184 2195 2220 2186 2202 2210 2203 2201 2195 2199 2200 2193 2205 2213 2184 2199 2210 2186 2198 2196 2177 2190 2187 2205 2204 2197 2215 2185 2190
13 17 21 21 30 12 19 35 6 5 11 12 25 26 23 18 7373 7366 7378 7395 7384 7399 7385 7370 7377 7366 7374 7382 7370 7373 7379 7382 7389 7367 7376 7382 7377 7389 7371 7385 7388 7363 7369 7391 7369 7378 8044 8039 8038 8043 8044 8051 8041 8047 8051 8022 8033 8042 8037 8044 8030 8054 8060 8035 8042 8034 8047 8033 8064 8036 8017 8031 8021 8041 8047 8025 2182 2175 2186 2211 2177 2193 2201 2194 2192 2186 2190 2191 2184 2196 2204 2175 2190 2201 2177 2189 2187 2168 2181 2178 2196 2195 2188 2206 2176 2181
4 9 8 17 5 17 31 17 9 4 15 12 24 11 7 7385 7378 7390 7407 7395 7411 7397 7382 7389 7378 7385 7394 7382 7385 7391 7394 7401 7379 7388 7394 7389 7401 7383 7396 7400 7375 7380 7403 7381 7390 8056 8051 8051 8056 8056 8064 8053 8059 8063 8035 8045 8054 8049 8056 8042 8066 8072 8047 8055 8046 8060 8046 8077 8048 8030 8044 8034 8053 8060 8038 2193 2186 2197 2221 2188 2204 2212 2205 2202 2196 2200 2202 2195 2206 2215 2185 2200 2212 2188 2199 2198 2179 2192 2189 2206 2206 2199 2216 2186 2192
9 5 13 8 19 33 21 12 6 16 10 27 10 8 7389 7382 7394 7411 7399 7415 7401 7386 7393 7382 7389 7398 7386 7389 7395 7398 7405 7383 7392 7398 7393 7405 7387 7400 7404 7379 7384 7407 7385 7394 8060 8055 8055 8060 8060 8068 8057 8063 8067 8039 8049 8058 8053 8060 8046 8070 8076 8051 8059 8050 8063 8050 8081 8052 8034 8048 8038 8057 8064 8042 2195 2188 2198 2223 2189 2205 2214 2207 2204 2198 2202 2203 2197 2208 2216 2187 2202 2213 2190 2201 2200 2181 2194 2190 2208 2208 2201 2218 2188 2194
8 14 9 14 25 24 18 13 24 6 20 3 3 7389 7382 7393 7411 7399 7415 7401 7386 7393 7382 7389 7398 7386 7389 7395 7398 7404 7383 7392 7397 7393 7405 7387 7400 7404 7378 7384 7407 7384 7394 8061 8056 8055 8060 8061 8068 8058 8064 8068 8039 8050 8059 8054 8061 8047 8071 8077 8052 8059 8051 8064 8050 8081 8053 8034 8049 8038 8058 8064 8042 2202 2195 2206 2230 2197 2213 2221 2214 2212 2205 2210 2211 2204 2215 2224 2194 2209 2221 2197 2208 2207 2188 2201 2198 2215 2215 2208 2225 2195 2201
9 12 21 33 26 17 11 20 6 28 8 8 7393 7386 7398 7415 7403 7419 7405 7390 7397 7386 7393 7402 7390 7393 7399 7402 7409 7387 7396 7402 7397 7409 7391 7404 7408 7383 7388 7411 7389 7398 8065 8059 8059 8064 8064 8072 8062 8068 8071 8043 8053 8063 8057 8064 8050 8075 8080 8056 8063 8054 8068 8054 8085 8056 8038 8052 8042 8061 8068 8046 2199 2192 2202 2227 2194 2210 2218 2211 2208 2202 2206 2208 2201 2212 2221 2191 2206 2217 2194 2205 2204 2185 2198 2195 2212 2212 2205 2222 2192 2198
20 28 38 35 25 19 27 9 34 12 16 7402 7395 7407 7424 7412 7428 7414 7399 7406 7395 7402 7411 7399 7402 7408 7411 7418 7396 7405 7411 7406 7418 7400 7413 7417 7392 7397 7420 7398 7407 8074 8068 8068 8073 8073 8081 8071 8077 8080 8052 8062 8072 8066 8073 8059 8084 8089 8065 8072 8063 8077 8063 8094 8065 8047 8061 8051 8070 8077 8055 2205 2198 2208 2233 2200 2216 2224 2217 2214 2208 2212 2213 2207 2218 2226 2197 2212 2223 2200 2211 2210 2191 2204 2201 2218 2218 2211 2228 2198 2204
12 27 15 10 7 18 14 20 12 6 7382 7374 7386 7403 7392 7408 7393 7378 7386 7375 7382 7391 7378 7381 7388 7390 7397 7375 7385 7390 7386 7398 7380 7393 7396 7371 7377 7400 7377 7387 8053 8048 8048 8053 8053 8061 8050 8056 8060 8031 8042 8051 8046 8053 8039 8063 8069 8044 8052 8043 8056 8043 8074 8045 8027 8041 8030 8050 8057 8035 2194 2187 2197 2222 2189 2205 2213 2206 2203 2197 2201 2202 2196 2207 2215 2186 2201 2212 2189 2200 2199 2180 2193 2190 2207 2207 2200 2217 2187 2193
16 18 20 19 29 19 8 16 13 7376 7369 7381 7398 7386 7402 7388 7373 7380 7369 7376 7385 7373 7376 7382 7385 7392 7370 7379 7385 7380 7392 7374 7387 7391 7366 7371 7394 7372 7381 8049 8044 8043 8048 8049 8056 8046 8052 8056 8027 8038 8047 8042 8049 8035 8059 8065 8040 8047 8039 8052 8038 8069 8041 8022 8037 8026 8046 8052 8030 2200 2193 2203 2228 2195 2211 2219 2212 2209 2203 2207 2208 2202 2213 2221 2192 2207 2219 2195 2206 2205 2186 2199 2196 2213 2213 2206 2223 2193 2199
33 36 34 45 29 9 26 25 7375 7368 7380 7397 7385 7401 7387 7372 7379 7368 7375 7384 7372 7375 7381 7384 7390 7369 7378 7384 7379 7391 7373 7386 7390 7365 7370 7393 7371 7380 8050 8045 8044 8049 8050 8057 8047 8053 8057 8028 8039 8048 8043 8050 8035 8060 8066 8041 8048 8040 8053 8039 8070 8042 8023 8037 8027 8046 8053 8031 2213 2206 2216 2241 2207 2224 2232 2225 2222 2216 2220 2221 2215 2226 2234 2205 2220 2231 2208 2219 2218 2198 2212 2208 2226 2225 2218 2236 2206 2212
11 16 18 29 24 27 21 7368 7361 7373 7390 7378 7394 7380 7365 7372 7361 7368 7377 7365 7368 7374 7377 7383 7362 7371 7377 7372 7384 7366 7379 7383 7358 7363 7386 7364 7373 8039 8034 8033 8038 8039 8046 8036 8042 8046 8017 8028 8037 8032 8039 8025 8049 8055 8030 8037 8029 8042 8028 8059 8031 8012 8027 8016 8036 8042 8020 2182 2175 2185 2210 2176 2192 2201 2194 2191 2185 2189 2190 2184 2195 2203 2174 2189 2200 2177 2188 2187 2167 2181 2177 2195 2194 2187 2205 2175 2181
6 9 21 27 20 15 7378 7371 7383 7400 7389 7404 7390 7375 7382 7371 7379 7387 7375 7378 7384 7387 7394 7372 7381 7387 7382 7394 7376 7390 7393 7368 7374 7396 7374 7383 8049 8044 8043 8048 8049 8056 8046 8052 8055 8027 8038 8047 8041 8049 8034 8059 8064 8040 8047 8039 8052 8038 8069 8041 8022 8036 8026 8045 8052 8030 2184 2177 2188 2213 2179 2195 2203 2196 2194 2188 2192 2193 2186 2198 2206 2177 2192 2203 2179 2191 2189 2170 2183 2180 2198 2197 2190 2208 2178 2183
12 15 27 15 10 7384 7377 7389 7406 7394 7410 7396 7381 7388 7377 7384 7393 7381 7384 7390 7393 7399 7378 7387 7393 7388 7400 7382 7395 7399 7374 7379 7402 7380 7389 8055 8050 8049 8054 8055 8062 8052 8058 8061 8033 8043 8053 8047 8054 8040 8065 8070 8046 8053 8045 8058 8044 8075 8047 8028 8042 8032 8051 8058 8036 2190 2183 2193 2218 2184 2200 2209 2202 2199 2193 2197 2198 2192 2203 2211 2182 2197 2208 2184 2196 2195 2175 2189 2185 2203 2203 2195 2213 2183 2189
26 36 26 22 7381 7374 7386 7403 7392 7407 7393 7378 7385 7375 7382 7391 7378 7381 7388 7390 7397 7375 7385 7390 7386 7398 7380 7393 7396 7371 7377 7399 7377 7387 8051 8046 8045 8050 8051 8058 8048 8054 8058 8029 8040 8049 8044 8051 8037 8061 8067 8042 8049 8041 8054 8040 8071 8043 8024 8038 8028 8048 8054 8032 2179 2172 2182 2207 2174 2190 2198 2191 2188 2182 2186 2187 2181 2192 2200 2171 2186 2197 2174 2185 2184 2165 2178 2174 2192 2192 2185 2202 2172 2178
25 3 8 7395 7387 7399 7416 7405 7420 7406 7391 7398 7388 7395 7404 7391 7394 7401 7403 7410 7388 7398 7403 7399 7411 7393 7406 7409 7384 7390 7412 7390 7400 8067 8061 8061 8066 8067 8074 8064 8070 8073 8045 8055 8065 8059 8066 8052 8077 8082 8058 8065 8056 8070 8056 8087 8058 8040 8054 8044 8063 8070 8048 2205 2198 2208 2233 2200 2216 2224 2217 2214 2208 2212 2213 2207 2218 2226 2197 2212 2223 2200 2211 2210 2191 2204 2200 2218 2218 2211 2228 2198 2204
22 20 7373 7366 7377 7395 7383 7399 7385 7370 7377 7366 7373 7382 7370 7373 7379 7382 7388 7367 7376 7382 7377 7389 7371 7384 7388 7362 7368 7391 7368 7378 8047 8042 8041 8046 8047 8054 8044 8050 8053 8025 8035 8045 8039 8046 8032 8057 8062 8038 8045 8036 8050 8036 8067 8038 8020 8034 8024 8043 8050 8028 2204 2197 2208 2232 2199 2215 2223 2216 2214 2208 2212 2213 2206 2217 2226 2197 2211 2223 2199 2210 2209 2190 2203 2200 2217 2217 2210 2227 2197 2203
6 7392 7385 7396 7414 7402 7418 7404 7389 7396 7385 7392 7401 7388 7392 7398 7401 7407 7386 7395 7400 7396 7408 7390 7403 7407 7381 7387 7410 7387 7397 8064 8059 8059 8063 8064 8072 8061 8067 8071 8042 8053 8062 8057 8064 8050 8074 8080 8055 8063 8054 8067 8053 8084 8056 8037 8052 8041 8061 8068 8045 2204 2197 2208 2233 2199 2215 2223 2216 2214 2208 2212 2213 2207 2218 2226 2197 2212 2223 2199 2211 2209 2190 2204 2200 2218 2217 2210 2228 2198 2203
7386 7379 7391 7408 7397 7412 7398 7383 7390 7380 7387 7396 7383 7386 7392 7395 7402 7380 7390 7395 7391 7403 7385 7398 7401 7376 7382 7404 7382 7392 8059 8053 8053 8058 8058 8066 8055 8062 8065 8037 8047 8057 8051 8058 8044 8069 8074 8050 8057 8048 8062 8048 8079 8050 8032 8046 8036 8055 8062 8040 2199 2193 2203 2228 2194 2210 2218 2212 2209 2203 2207 2208 2202 2213 2221 2192 2207 2218 2194 2206 2205 2185 2199 2195 2213 2212 2205 2223 2193 2199
8 5 23 11 26 12 4 9 14 14 24 20 11 6 9 19 10 4 20 5 20 10 13 16 18 11 23 6 8 1145 1155 1131 1148 1127 1157 1155 1149 1154 1124 1150 1131 1136 1137 1129 1141 1164 1130 1156 1130 1159 1139 1136 1129 1117 1132 1136 1136 1144 1135 6468 6478 6480 6462 6473 6476 6475 6481 6481 6492 6482 6472 6456 6466 6463 6480 6460 6492 6490 6485 6466 6461 6464 6480 6488 6454 6464 6463 6469 6480
13 29 19 34 19 7 12 9 13 25 16 11 14 16 24 4 12 26 11 25 8 19 24 12 7 27 7 13 1152 1161 1138 1154 1134 1164 1162 1156 1161 1131 1156 1138 1143 1143 1136 1148 1171 1137 1163 1137 1166 1146 1143 1136 1124 1139 1142 1143 1151 1142 6462 6472 6474 6456 6467 6470 6469 6475 6475 6486 6476 6466 6450 6460 6457 6474 6454 6486 6484 6479 6460 6454 6458 6474 6482 6448 6458 6457 6462 6474
19 7 22 8 8 8 17 15 23 21 13 2 5 15 14 2 17 4 17 12 10 12 22 14 19 9 7 1142 1152 1129 1145 1124 1154 1152 1147 1151 1121 1147 1128 1134 1134 1127 1138 1162 1127 1153 1128 1156 1136 1133 1126 1114 1129 1133 1133 1141 1132 6473 6482 6484 6467 6477 6480 6480 6486 6485 6496 6486 6476 6460 6471 6467 6484 6465 6496 6494 6489 6470 6465 6469 6484 6492 6458 6468 6467 6473 6484
17 14 11 27 18 29 22 19 27 22 18 15 7 28 21 29 18 7 24 10 16 33 26 7 28 17 1140 1150 1127 1143 1122 1152 1151 1145 1149 1119 1145 1126 1132 1132 1125 1136 1160 1125 1152 1126 1154 1135 1131 1124 1113 1128 1131 1131 1139 1131 6491 6501 6503 6485 6496 6499 6498 6504 6504 6515 6505 6495 6479 6490 6486 6503 6483 6515 6513 6508 6489 6484 6487 6503 6511 6477 6487 6486 6492 6503
16 8 14 14 24 21 27 27 19 6 6 16 20 7 13 10 18 19 11 5 28 20 20 15 12 1136 1146 1122 1138 1118 1148 1146 1140 1145 1115 1141 1122 1127 1127 1120 1132 1155 1121 1147 1121 1150 1130 1127 1120 1108 1123 1127 1127 1135 1126 6477 6486 6489 6471 6482 6484 6484 6490 6489 6500 6491 6481 6465 6475 6471 6488 6469 6500 6499 6493 6475 6469 6473 6488 6496 6462 6472 6471 6477 6488
16 29 25 37 32 32 38 31 21 18 19 35 23 21 23 20 31 19 11 42 34 20 30 24 1127 1137 1114 1130 1109 1139 1137 1132 1136 1106 1132 1113 1119 1118 1112 1123 1146 1112 1139 1113 1141 1121 1117 1111 1100 1114 1118 1118 1126 1118 6492 6501 6504 6486 6496 6499 6499 6505 6504 6515 6506 6496 6480 6490 6486 6503 6484 6515 6513 6508 6489 6484 6488 6503 6511 6477 6487 6486 6492 6503
16 9 21 16 19 22 15 6 4 8 19 10 21 8 10 15 4 10 25 18 12 17 8 1141 1151 1128 1144 1123 1153 1151 1146 1150 1120 1146 1127 1133 1133 1126 1137 1161 1126 1153 1127 1155 1135 1132 1125 1114 1129 1132 1132 1140 1132 6481 6490 6492 6474 6485 6488 6487 6493 6493 6504 6494 6484 6468 6479 6475 6492 6472 6504 6502 6497 6478 6473 6477 6492 6500 6466 6476 6475 6481 6492
12 15 16 27 21 14 9 12 22 10 6 20 9 24 12 17 19 19 12 26 2 12 1145 1155 1132 1148 1127 1157 1155 1150 1154 1124 1150 1131 1137 1137 1130 1141 1165 1130 1156 1131 1159 1139 1136 1129 1117 1132 1136 1136 1144 1135 6465 6474 6477 6459 6469 6472 6472 6478 6477 6488 6478 6469 6453 6463 6459 6476 6457 6488 6486 6481 6462 6457 6461 6476 6484 6450 6460 6459 6465 6476
12 7 15 14 6 8 8 12 10 10 26 5 13 6 7 18 16 9 15 14 2 1149 1159 1136 1152 1132 1161 1160 1154 1159 1128 1154 1135 1141 1141 1134 1145 1169 1135 1161 1135 1164 1144 1140 1133 1122 1137 1140 1140 1148 1140 6474 6484 6486 6468 6479 6482 6481 6487 6487 6498 6488 6478 6462 6473 6469 6486 6466 6498 6496 6491 6472 6467 6470 6486 6494 6460 6470 6469 6475 6486
7 19 8 7 18 19 22 5 18 34 14 23 6 19 29 4 4 25 16 13 1159 1169 1146 1162 1141 1171 1169 1164 1168 1138 1164 1145 1151 1151 1144 1155 1179 1144 1171 1145 1173 1153 1150 1143 1132 1147 1150 1150 1158 1150 6465 6475 6477 6459 6470 6473 6472 6478 6478 6489 6479 6469 6453 6463 6460 6477 6457 6489 6487 6482 6463 6457 6461 6476 6485 6451 6461 6460 6465 6477
12 7 2 15 15 16 9 16 32 11 16 5 13 25 11 7 18 18 9 1156 1166 1143 1159 1139 1168 1167 1161 1166 1135 1161 1142 1148 1148 1141 1152 1176 1142 1168 1142 1170 1151 1147 1140 1129 1144 1147 1147 1155 1147 6473 6482 6484 6466 6477 6480 6480 6485 6485 6496 6486 6476 6460 6471 6467 6484 6464 6496 6494 6489 6470 6465 6469 6484 6492 6458 6468 6467 6473 6484
13 14 22 21 14 21 25 40 20 12 17 15 29 21 19 12 29 16 1159 1169 1146 1162 1141 1171 1169 1164 1168 1138 1164 1145 1151 1151 1144 1155 1179 1144 1171 1145 1173 1153 1150 1143 1132 1147 1150 1150 1158 1150 6483 6493 6495 6477 6488 6491 6490 6496 6496 6507 6497 6487 6471 6482 6478 6495 6475 6507 6505 6500 6481 6475 6479 6495 6503 6469 6479 6478 6484 6495
8 21 22 21 12 22 39 18 21 10 19 31 8 10 22 23 15 1163 1173 1150 1166 1145 1175 1173 1168 1172 1142 1168 1149 1155 1155 1148 1159 1183 1148 1174 1149 1177 1157 1154 1147 1136 1150 1154 1154 1162 1153 6471 6480 6483 6465 6475 6478 6478 6484 6483 6494 6485 6475 6459 6469 6465 6482 6463 6494 6492 6487 6468 6463 6467 6482 6490 6456 6466 6465 6471 6482
13 14 16 7 14 30 9 16 2 12 23 11 5 18 15 7 1155 1164 1141 1157 1137 1167 1165 1159 1164 1134 1160 1141 1146 1146 1139 1151 1174 1140 1166 1140 1169 1149 1146 1139 1127 1142 1146 1146 1154 1145 6471 6481 6483 6465 6476 6479 6478 6484 6484 6495 6485 6475 6459 6469 6466 6483 6463 6495 6493 6488 6469 6464 6467 6483 6491 6457 6467 6466 6472 6483
3 14 14 4 18 4 16 12 9 11 22 14 18 11 6 1142 1152 1128 1145 1124 1154 1152 1146 1151 1121 1147 1128 1133 1133 1126 1138 1161 1127 1153 1127 1156 1136 1133 1126 1114 1129 1133 1133 1141 1132 6474 6484 6486 6468 6479 6482 6481 6487 6487 6497 6488 6478 6462 6472 6469 6486 6466 6498 6496 6491 6472 6466 6470 6485 6494 6460 6470 6469 6474 6486
11 16 7 19 5 13 14 6 10 24 16 16 14 7 1141 1151 1128 1144 1123 1153 1151 1146 1150 1120 1146 1127 1133 1133 1126 1137 1161 1126 1153 1127 1155 1135 1132 1125 1114 1129 1132 1132 1140 1132 6477 6487 6489 6471 6482 6485 6484 6490 6490 6500 6491 6481 6465 6475 6471 6488 6469 6501 6499 6494 6475 6469 6473 6488 6497 6463 6473 6472 6477 6489
22 18 29 13 2 17 5 17 26 20 4 24 11 1145 1155 1132 1148 1128 1157 1156 1150 1155 1125 1150 1131 1137 1137 1130 1141 1165 1131 1157 1131 1160 1140 1136 1129 1118 1133 1137 1136 1144 1136 6486 6495 6498 6480 6491 6494 6493 6499 6499 6509 6500 6490 6474 6484 6480 6497 6478 6510 6508 6503 6484 6478 6482 6497 6506 6472 6482 6481 6486 6498
14 29 11 23 5 18 25 8 2 25 11 11 1155 1164 1141 1157 1137 1167 1165 1159 1164 1134 1159 1141 1146 1146 1139 1151 1174 1140 1166 1140 1169 1149 1146 1139 1127 1142 1146 1146 1154 1145 6465 6474 6476 6459 6469 6472 6472 6478 6477 6488 6478 6468 6452 6463 6459 6476 6457 6488 6486 6481 6462 6457 6461 6476 6484 6450 6460 6459 6465 6476
16 6 20 13 12 12 22 14 22 8 9 1141 1151 1128 1144 1124 1153 1151 1146 1151 1120 1146 1127 1133 1133 1126 1137 1161 1127 1153 1127 1155 1136 1132 1125 1114 1129 1132 1132 1140 1132 6471 6480 6482 6464 6475 6478 6478 6484 6483 6494 6484 6474 6458 6469 6465 6482 6463 6494 6492 6487 6468 6463 6467 6482 6490 6456 6466 6465 6471 6482
21 31 29 25 13 38 30 33 19 24 1125 1135 1112 1128 1108 1137 1136 1130 1135 1104 1130 1112 1117 1117 1110 1122 1145 1111 1137 1111 1140 1120 1117 1109 1098 1113 1116 1116 1124 1116 6472 6481 6483 6465 6476 6479 6478 6484 6484 6495 6485 6475 6459 6470 6466 6483 6464 6495 6493 6488 6469 6464 6468 6483 6491 6457 6467 6466 6472 6483
15 9 8 14 19 11 17 11 3 1145 1155 1132 1148 1128 1157 1156 1150 1155 1124 1150 1132 1137 1137 1130 1142 1165 1131 1157 1131 1160 1140 1136 1129 1118 1133 1136 1136 1144 1136 6473 6483 6485 6467 6478 6481 6480 6486 6486 6496 6487 6477 6461 6471 6468 6485 6465 6497 6495 6490 6471 6465 6469 6484 6493 6459 6469 6468 6473 6485
18 7 19 27 21 2 26 12 1147 1157 1133 1150 1129 1159 1157 1151 1156 1126 1152 1133 1138 1138 1131 1143 1166 1132 1158 1132 1161 1141 1137 1131 1119 1134 1138 1138 1146 1137 6487 6497 6499 6481 6492 6495 6494 6500 6500 6511 6501 6491 6475 6485 6482 6499 6479 6511 6509 6504 6485 6479 6483 6498 6507 6473 6483 6482 6487 6499
14 23 10 3 20 13 8 1154 1164 1141 1157 1136 1166 1164 1159 1163 1133 1159 1140 1146 1146 1139 1150 1174 1139 1166 1140 1168 1148 1145 1138 1127 1142 1145 1145 1153 1145 6469 6479 6481 6463 6474 6477 6476 6482 6482 6493 6483 6473 6457 6467 6464 6481 6461 6493 6491 6486 6467 6461 6465 6481 6489 6455 6465 6464 6469 6481
14 23 16 9 19 6 1145 1155 1131 1148 1127 1157 1155 1149 1154 1124 1150 1131 1136 1136 1129 1141 1164 1130 1156 1130 1159 1139 1136 1129 1117 1132 1136 1136 1144 1135 6481 6491 6493 6475 6486 6489 6488 6494 6494 6504 6495 6485 6469 6479 6476 6493 6473 6505 6503 6498 6479 6473 6477 6492 6501 6467 6477 6476 6481 6493
33 25 20 19 16 1132 1141 1118 1134 1114 1144 1142 1136 1141 1111 1136 1118 1123 1123 1116 1128 1151 1117 1143 1117 1146 1126 1122 1116 1104 1119 1122 1122 1131 1122 6481 6490 6492 6475 6485 6488 6488 6494 6493 6504 6494 6485 6468 6479 6475 6492 6473 6504 6502 6497 6478 6473 6477 6492 6500 6466 6476 6475 6481 6492
8 28 19 18 1163 1173 1150 1166 1146 1175 1173 1168 1173 1142 1168 1149 1155 1155 1148 1159 1183 1149 1175 1149 1177 1157 1154 1147 1136 1151 1154 1154 1162 1154 6463 6472 6475 6457 6467 6470 6470 6476 6475 6486 6476 6467 6450 6461 6457 6474 6455 6486 6484 6479 6460 6455 6459 6474 6482 6448 6458 6457 6463 6474
23 13 10 1155 1165 1142 1158 1138 1167 1166 1160 1165 1134 1160 1142 1147 1147 1140 1152 1175 1141 1167 1141 1170 1150 1147 1139 1128 1143 1146 1146 1154 1146 6467 6476 6478 6460 6471 6474 6474 6480 6479 6490 6480 6470 6454 6465 6461 6478 6458 6490 6488 6483 6464 6459 6463 6478 6486 6452 6462 6461 6467 6478
28 15 1147 1157 1134 1150 1129 1159 1157 1152 1156 1126 1152 1133 1139 1139 1132 1143 1167 1132 1159 1133 1161 1141 1137 1131 1120 1135 1138 1138 1146 1138 6490 6499 6501 6483 6494 6497 6496 6502 6502 6513 6503 6493 6477 6488 6484 6501 6481 6513 6511 6506 6487 6482 6485 6501 6509 6475 6485 6484 6490 6501
14 1144 1154 1131 1147 1127 1156 1154 1149 1154 1123 1149 1131 1136 1136 1129 1141 1164 1130 1156 1130 1159 1139 1136 1128 1117 1132 1135 1135 1143 1135 6463 6473 6475 6457 6468 6471 6470 6476 6476 6486 6477 6467 6451 6461 6458 6475 6455 6487 6485 6480 6461 6455 6459 6474 6483 6449 6459 6458 6463 6475
1148 1158 1134 1150 1130 1160 1158 1152 1157 1127 1153 1134 1139 1139 1132 1144 1167 1133 1159 1133 1162 1142 1139 1132 1120 1135 1139 1139 1147 1138 6475 6485 6487 6469 6480 6483 6482 6488 6488 6498 6489 6479 6463 6473 6469 6486 6467 6499 6497 6492 6473 6467 6471 6486 6495 6461 6471 6470 6475 6487
18 14 4 23 12 16 5 9 24 19 16 9 10 17 17 20 15 16 14 16 11 35 16 30 14 24 9 5 19 6869 6879 6880 6859 6874 6874 6872 6879 6879 6890 6881 6871 6857 6865 6860 6881 6860 6888 6890 6884 6866 6864 6866 6880 6885 6853 6864 6860 6870 6880
29 13 40 15 2 16 16 31 6 33 22 28 27 34 21 29 4 27 8 16 52 31 37 24 20 26 23 19 6860 6870 6870 6849 6865 6865 6863 6870 6870 6881 6871 6862 6848 6856 6851 6872 6851 6879 6881 6874 6857 6855 6856 6871 6876 6844 6854 6851 6861 6871
17 12 26 28 18 23 16 28 5 8 6 10 16 33 3 29 5 30 15 30 3 21 10 26 4 12 20 6867 6877 6877 6856 6872 6872 6870 6877 6877 6888 6878 6869 6855 6863 6858 6879 6858 6886 6888 6881 6864 6862 6863 6878 6883 6851 6861 6858 6868 6878
27 10 12 4 8 25 15 21 11 15 18 21 18 18 12 17 12 10 39 20 32 16 22 13 9 18 6867 6877 6878 6857 6873 6873 6871 6877 6877 6889 6879 6870 6856 6863 6858 6879 6859 6886 6889 6882 6864 6862 6864 6879 6884 6851 6862 6858 6869 6878
33 38 26 30 25 40 7 19 12 21 14 39 14 39 16 39 26 21 12 28 21 37 14 19 32 6875 6885 6885 6864 6880 6880 6878 6885 6885 6896 6886 6877 6863 6871 6866 6886 6866 6894 6896 6889 6871 6869 6871 6886 6891 6859 6869 6865 6876 6886
12 7 3 35 20 28 21 21 28 23 9 27 11 26 7 20 40 28 41 25 30 21 14 27 6874 6884 6884 6863 6879 6879 6877 6884 6884 6895 6886 6876 6862 6870 6865 6886 6865 6893 6895 6888 6871 6869 6870 6885 6890 6858 6869 6865 6875 6885
14 13 31 8 32 21 26 26 32 19 28 2 27 6 16 50 30 38 24 22 24 21 20 6862 6872 6873 6852 6868 6867 6865 6872 6872 6884 6874 6864 6850 6858 6853 6874 6853 6881 6883 6877 6859 6857 6859 6873 6878 6846 6857 6853 6863 6873
5 28 19 20 13 14 21 18 15 19 14 19 12 14 36 21 34 18 26 14 7 22 6871 6881 6882 6861 6877 6876 6875 6881 6881 6893 6883 6873 6859 6867 6862 6883 6862 6890 6892 6886 6868 6866 6868 6882 6887 6855 6866 6862 6872 6882
33 20 25 18 18 26 20 11 24 12 24 10 18 38 25 39 23 29 18 11 26 6874 6884 6884 6863 6879 6879 6877 6884 6884 6895 6885 6876 6862 6870 6865 6886 6865 6893 6895 6888 6871 6869 6870 6885 6890 6858 6868 6865 6875 6885
27 21 15 21 7 32 43 13 32 12 35 15 46 14 7 10 16 18 26 12 6850 6860 6861 6840 6856 6855 6854 6860 6860 6872 6862 6852 6838 6846 6841 6862 6841 6869 6871 6865 6847 6845 6847 6861 6867 6834 6845 6841 6851 6861
33 20 28 24 36 27 27 10 25 15 14 54 29 33 21 14 25 24 15 6854 6864 6865 6844 6860 6859 6858 6864 6864 6876 6866 6856 6842 6850 6845 6866 6845 6873 6876 6869 6851 6849 6851 6866 6870 6838 6849 6845 6856 6865
13 6 15 12 34 8 32 10 32 20 25 7 25 15 31 8 13 25 6871 6881 6882 6861 6876 6876 6875 6881 6881 6893 6883 6873 6859 6867 6862 6883 6862 6890 6892 6886 6868 6866 6868 6882 6887 6855 6866 6862 6872 6882
9 8 20 29 7 22 6 23 7 36 9 21 5 19 6 11 14 6863 6873 6874 6853 6868 6868 6866 6873 6873 6884 6875 6865 6851 6859 6854 6875 6854 6882 6884 6878 6860 6858 6859 6874 6879 6847 6858 6854 6864 6874
14 11 28 9 27 10 26 16 27 9 27 13 28 4 7 23 6871 6881 6882 6861 6877 6877 6875 6881 6881 6893 6883 6873 6859 6867 6862 6883 6862 6890 6893 6886 6868 6866 6868 6883 6888 6855 6866 6862 6873 6882
25 36 7 27 5 30 10 40 9 13 3 17 11 18 12 6857 6867 6868 6847 6862 6862 6860 6867 6867 6878 6869 6859 6845 6853 6848 6869 6848 6876 6878 6872 6854 6852 6853 6868 6873 6841 6852 6848 6858 6868
27 19 32 21 30 26 18 18 37 24 38 14 12 33 6882 6892 6893 6872 6887 6887 6886 6892 6892 6904 6894 6884 6870 6878 6873 6894 6873 6901 6903 6897 6879 6877 6879 6893 6898 6866 6877 6873 6883 6893
34 18 34 13 29 42 36 50 34 39 29 21 36 6881 6891 6892 6870 6886 6886 6884 6891 6891 6902 6893 6883 6869 6877 6872 6893 6872 6900 6902 6896 6878 6876 6877 6892 6897 6865 6876 6872 6882 6892
29 2 30 13 34 2 18 7 23 6 14 17 6863 6873 6874 6853 6869 6869 6867 6873 6873 6885 6875 6865 6851 6859 6854 6875 6854 6882 6885 6878 6860 6858 6860 6875 6880 6847 6858 6854 6865 6874
28 5 17 50 31 39 25 23 25 21 22 6864 6874 6874 6853 6869 6869 6867 6874 6874 6885 6875 6866 6852 6859 6855 6875 6855 6883 6885 6878 6860 6859 6860 6875 6880 6848 6858 6854 6865 6874
29 12 36 4 17 5 21 7 15 15 6862 6872 6872 6851 6867 6867 6865 6872 6872 6883 6873 6864 6850 6858 6853 6874 6853 6881 6883 6876 6859 6857 6858 6873 6878 6846 6856 6853 6863 6873
20 47 32 42 27 28 25 20 25 6868 6878 6879 6858 6874 6873 6872 6878 6878 6890 6880 6870 6856 6864 6859 6880 6859 6887 6889 6883 6865 6863 6865 6880 6884 6852 6863 6859 6870 6879
43 15 22 8 13 12 15 8 6858 6868 6869 6848 6864 6863 6862 6868 6868 6880 6870 6860 6846 6854 6849 6870 6849 6877 6880 6873 6855 6853 6855 6870 6875 6842 6853 6849 6860 6869
32 49 40 56 31 30 50 6896 6906 6906 6885 6901 6901 6899 6906 6906 6917 6907 6898 6884 6892 6887 6908 6887 6915 6917 6910 6893 6891 6892 6907 6912 6880 6890 6887 6897 6907
19 9 25 7 15 20 6865 6874 6875 6854 6870 6870 6868 6875 6875 6886 6876 6867 6853 6861 6856 6876 6856 6884 6886 6879 6861 6859 6861 6876 6881 6849 6859 6855 6866 6876
16 21 24 32 18 6847 6857 6857 6836 6852 6852 6850 6857 6857 6868 6858 6849 6835 6843 6838 6858 6838 6866 6868 6861 6843 6841 6843 6858 6863 6831 6841 6837 6848 6858
16 9 16 11 6858 6868 6869 6848 6864 6864 6862 6869 6868 6880 6870 6861 6847 6854 6849 6870 6850 6878 6880 6873 6855 6853 6855 6870 6875 6842 6853 6849 6860 6869
25 28 6 6845 6855 6856 6835 6851 6851 6849 6855 6855 6867 6857 6847 6834 6841 6836 6857 6836 6864 6867 6860 6842 6840 6842 6857 6862 6829 6840 6836 6847 6856
8 19 6868 6878 6878 6857 6873 6873 6871 6878 6878 6889 6880 6870 6856 6864 6859 6880 6859 6887 6889 6882 6865 6863 6864 6879 6884 6852 6863 6859 6869 6879
23 6873 6883 6884 6863 6879 6879 6877 6883 6883 6895 6885 6875 6861 6869 6864 6885 6864 6892 6895 6888 6870 6868 6870 6885 6890 6857 6868 6864 6875 6884
6850 6860 6861 6840 6856 6855 6854 6860 6860 6872 6862 6852 6838 6846 6841 6862 6841 6869 6871 6865 6847 6845 6847 6861 6866 6834 6845 6841 6851 6861
10 14 28 6 15 23 21 18 25 18 11 12 13 22 12 10 35 22 20 5 19 5 11 27 17 7 23 7 12
12 36 5 18 26 21 18 20 17 16 22 21 29 2 20 34 13 17 15 21 14 4 26 28 17 31 10 7
27 13 8 15 9 6 12 5 9 25 15 22 12 20 22 12 6 14 31 18 8 14 27 17 23 18 5
34 20 14 22 23 34 26 20 30 15 7 37 23 30 39 28 23 45 30 34 27 20 23 5 35 31
18 26 22 19 23 18 14 17 19 27 7 16 35 18 19 11 18 9 7 28 23 13 29 5 9
8 6 5 16 7 5 25 9 15 18 18 20 19 9 13 34 19 15 13 22 15 16 22 12
8 10 20 12 12 30 12 13 27 22 17 26 14 20 42 26 23 13 25 20 13 29 20
3 12 5 11 31 15 19 21 24 14 18 6 19 39 25 18 7 28 21 20 26 14
11 2 9 29 14 20 18 22 17 15 5 17 37 22 15 9 27 19 20 24 11
10 19 37 25 31 19 32 16 9 7 26 41 30 17 10 38 28 31 29 14
10 29 16 21 17 23 17 13 3 18 36 23 13 9 28 20 22 23 10
20 7 14 17 13 25 20 13 8 30 14 14 18 18 10 16 17 11
18 23 24 8 45 34 31 11 16 8 23 38 11 10 25 14 24
8 22 10 28 27 19 9 31 15 20 22 13 9 10 20 17
31 16 30 34 24 17 38 23 28 25 15 16 2 28 25
22 33 12 17 17 23 16 3 25 29 19 32 11 7
38 30 25 6 22 8 20 31 8 4 17 15 20
25 16 34 53 39 30 8 42 35 29 40 27
11 24 35 26 11 18 37 27 35 23 10
20 37 24 14 9 31 22 25 24 10
22 7 15 26 13 2 18 12 14
15 25 46 27 22 40 13 27
15 32 16 7 25 6 16
22 28 17 29 12 4
36 28 25 33 19
11 16 22 27
18 13 16
30 27
15

EOF
