NAME: clustered_100_s0
TYPE: TSP
DIMENSION: 100
EDGE_WEIGHT_TYPE: EXPLICIT
EDGE_WEIGHT_FORMAT: UPPER_ROW
EDGE_WEIGHT_SECTION
12 11 19 13 30 21 13 10 15 13 3 17 11 17 9 5 13 14 24 802 815 808 794 812 817 810 807 799 793 802 809 784 812 796 785 818 823 800 799 6676 6678 6678 6655 6673 6657 6647 6673 6652 6651 6668 6664 6663 6664 6656 6671 6675 6672 6648 6655 5131 5144 5131 5121 5124 5121 5122 5130 5130 5137 5135 5123 5133 5139 5149 5134 5158 5137 5137 5134 7828 7829 7825 7808 7799 7820 7831 7818 7815 7819 7805 7836 7819 7803 7819 7813 7808 7826 7824 7822
19 16 3 19 13 7 12 11 1 15 13 2 7 4 8 5 17 14 794 807 800 786 804 808 802 799 790 785 794 801 776 803 787 777 809 815 792 791 6675 6677 6676 6653 6672 6656 6646 6672 6650 6649 6667 6663 6662 6663 6654 6670 6674 6670 6647 6653 5119 5132 5119 5109 5112 5110 5110 5118 5118 5125 5123 5111 5121 5127 5137 5123 5146 5125 5125 5122 7821 7823 7819 7801 7792 7813 7824 7811 7808 7812 7798 7829 7812 7796 7812 7806 7802 7819 7818 7815
30 21 38 31 22 9 15 21 9 28 19 26 15 12 22 8 26 799 812 804 791 808 813 806 804 796 789 799 805 781 808 792 782 814 819 797 796 6667 6669 6669 6646 6664 6648 6638 6664 6642 6642 6659 6655 6654 6655 6647 6662 6666 6663 6639 6645 5137 5150 5138 5127 5130 5128 5128 5136 5136 5143 5141 5129 5139 5145 5155 5141 5164 5143 5143 5141 7822 7824 7820 7803 7794 7815 7825 7812 7809 7814 7800 7831 7813 7798 7814 7807 7803 7820 7819 7816
13 19 8 10 26 27 16 21 3 15 11 19 19 11 31 28 807 820 813 799 817 821 815 811 803 798 807 814 789 816 800 790 822 828 804 804 6691 6693 6693 6670 6688 6672 6662 6688 6667 6666 6683 6679 6678 6679 6671 6686 6690 6687 6663 6670 5118 5131 5118 5108 5111 5109 5109 5117 5117 5124 5122 5110 5120 5126 5136 5121 5145 5124 5124 5121 7835 7837 7833 7816 7807 7828 7838 7825 7822 7827 7812 7844 7826 7811 7827 7820 7816 7834 7832 7829
17 10 4 14 14 3 15 10 2 5 7 9 2 20 16 796 809 802 788 806 810 804 801 793 787 796 803 778 806 790 779 812 817 794 793 6678 6680 6680 6657 6675 6659 6649 6675 6654 6653 6670 6666 6665 6666 6658 6673 6677 6674 6650 6657 5118 5131 5119 5108 5111 5109 5109 5117 5117 5124 5122 5110 5120 5126 5136 5122 5145 5124 5124 5122 7823 7825 7821 7804 7795 7816 7827 7814 7811 7815 7801 7832 7814 7799 7815 7809 7804 7822 7820 7817
12 18 30 27 18 32 17 19 13 23 26 17 35 20 790 803 796 781 799 804 797 794 786 781 790 797 771 799 783 773 805 811 787 786 6682 6685 6684 6661 6679 6663 6653 6679 6658 6657 6674 6670 6669 6671 6662 6678 6681 6678 6655 6661 5101 5114 5102 5091 5094 5092 5092 5100 5101 5107 5105 5093 5103 5109 5119 5105 5128 5107 5107 5105 7820 7821 7817 7800 7791 7812 7823 7810 7807 7811 7797 7828 7811 7795 7811 7805 7800 7818 7816 7813
8 24 24 12 23 5 12 6 17 18 8 30 22 799 813 806 791 809 814 807 804 796 790 800 807 781 809 793 783 815 821 797 796 6686 6689 6688 6665 6683 6667 6657 6683 6662 6661 6678 6674 6673 6675 6666 6682 6685 6682 6659 6665 5112 5125 5113 5102 5105 5103 5103 5111 5112 5118 5116 5104 5114 5120 5130 5116 5139 5118 5118 5116 7828 7830 7826 7809 7800 7821 7831 7818 7815 7820 7806 7837 7819 7804 7820 7813 7809 7827 7825 7822
17 17 7 15 6 5 5 9 10 2 22 20 800 813 806 791 809 814 807 804 796 790 800 807 782 809 793 783 815 820 797 796 6681 6684 6683 6660 6678 6662 6652 6678 6657 6656 6673 6669 6668 6670 6661 6677 6680 6677 6654 6660 5119 5132 5120 5109 5112 5110 5110 5118 5118 5125 5123 5111 5121 5127 5137 5123 5146 5125 5125 5123 7827 7829 7825 7807 7799 7820 7830 7817 7814 7819 7804 7836 7818 7803 7818 7812 7808 7825 7824 7821
6 13 11 23 12 19 8 7 16 6 17 793 806 799 785 803 808 801 798 790 784 793 800 775 803 787 776 809 814 791 790 6667 6669 6669 6646 6664 6648 6638 6664 6642 6642 6659 6655 6654 6655 6647 6662 6666 6663 6639 6646 5128 5141 5129 5118 5121 5119 5119 5127 5127 5134 5132 5120 5130 5136 5146 5132 5155 5134 5134 5132 7818 7820 7816 7798 7790 7811 7821 7808 7805 7810 7795 7827 7809 7793 7809 7803 7799 7816 7815 7812
11 16 24 12 18 8 11 16 9 11 787 801 793 779 797 802 795 792 784 778 788 794 770 797 781 771 803 808 785 784 6664 6667 6666 6643 6661 6645 6635 6661 6640 6639 6656 6652 6651 6653 6644 6660 6663 6660 6637 6643 5123 5136 5123 5112 5116 5113 5113 5122 5122 5129 5126 5115 5125 5131 5141 5126 5150 5128 5129 5126 7813 7815 7811 7793 7785 7805 7816 7803 7800 7805 7790 7821 7804 7788 7804 7798 7794 7811 7810 7807
16 13 2 7 5 9 5 18 13 793 807 799 785 803 807 801 798 790 784 793 800 775 803 787 777 809 814 791 790 6675 6677 6677 6654 6672 6656 6646 6672 6651 6650 6667 6663 6662 6663 6655 6670 6674 6671 6647 6654 5118 5131 5118 5107 5111 5108 5108 5117 5117 5124 5121 5110 5120 5126 5136 5121 5145 5123 5124 5121 7820 7822 7818 7801 7792 7813 7823 7811 7808 7812 7798 7829 7811 7796 7812 7806 7801 7819 7817 7814
19 14 19 12 7 16 14 26 804 817 810 796 813 818 811 809 800 794 804 811 786 813 797 787 819 825 801 801 6676 6678 6678 6654 6673 6657 6647 6673 6651 6650 6668 6664 6663 6664 6655 6671 6675 6671 6648 6654 5134 5146 5134 5123 5127 5124 5124 5132 5133 5139 5137 5126 5135 5142 5151 5137 5161 5139 5139 5137 7829 7830 7826 7809 7800 7821 7832 7819 7816 7820 7806 7837 7820 7804 7820 7814 7810 7827 7825 7823
12 8 16 16 8 29 25 804 817 810 796 813 818 811 808 800 795 804 811 786 813 797 787 819 825 801 800 6688 6690 6689 6666 6685 6668 6659 6685 6663 6662 6680 6675 6675 6676 6667 6683 6687 6683 6660 6666 5118 5130 5118 5107 5110 5108 5108 5116 5117 5123 5121 5109 5119 5125 5135 5121 5144 5123 5123 5121 7832 7834 7830 7812 7804 7824 7835 7822 7819 7824 7809 7840 7823 7807 7823 7817 7813 7830 7829 7826
7 4 7 4 18 15 795 809 801 787 805 810 803 800 792 786 796 803 777 805 789 779 811 816 793 792 6676 6678 6678 6655 6673 6657 6647 6673 6652 6651 6668 6664 6663 6664 6656 6671 6675 6672 6648 6655 5120 5133 5120 5110 5113 5110 5111 5119 5119 5126 5124 5112 5122 5128 5138 5123 5147 5126 5126 5123 7822 7824 7820 7803 7794 7815 7825 7813 7810 7814 7800 7831 7813 7798 7814 7808 7803 7821 7819 7816
11 13 4 25 17 796 810 802 788 806 810 804 801 793 787 796 804 778 806 790 780 812 817 794 793 6681 6683 6683 6660 6678 6662 6652 6678 6656 6656 6673 6669 6668 6669 6661 6676 6680 6677 6653 6660 5115 5127 5115 5104 5108 5105 5105 5113 5114 5120 5118 5107 5116 5123 5132 5118 5142 5120 5120 5118 7824 7826 7822 7805 7796 7817 7827 7815 7811 7816 7802 7833 7815 7800 7816 7809 7805 7823 7821 7818
4 8 13 15 794 808 800 786 804 809 802 799 791 785 794 801 776 804 788 778 810 815 792 791 6672 6675 6674 6651 6669 6653 6644 6669 6648 6647 6664 6660 6659 6661 6652 6668 6671 6668 6645 6651 5123 5136 5123 5112 5116 5113 5113 5122 5122 5129 5126 5115 5125 5131 5141 5126 5150 5128 5129 5126 7820 7822 7818 7801 7792 7813 7824 7811 7808 7812 7798 7829 7812 7796 7812 7806 7801 7819 7817 7815
10 13 19 798 811 804 790 808 812 806 803 794 789 798 805 780 807 791 781 813 819 796 795 6674 6676 6676 6653 6671 6655 6645 6671 6650 6649 6666 6662 6661 6662 6654 6669 6673 6670 6646 6653 5127 5139 5127 5116 5120 5117 5117 5125 5126 5132 5130 5119 5128 5135 5144 5130 5154 5132 5132 5130 7824 7825 7821 7804 7795 7816 7827 7814 7811 7815 7801 7832 7815 7799 7815 7809 7805 7822 7820 7818
22 18 797 811 804 789 807 812 805 802 794 788 798 805 779 807 791 781 813 818 795 794 6680 6682 6681 6658 6677 6661 6651 6677 6655 6654 6672 6668 6667 6668 6659 6675 6679 6675 6652 6658 5118 5131 5118 5108 5111 5109 5109 5117 5117 5124 5122 5110 5120 5126 5136 5122 5145 5124 5124 5121 7825 7827 7823 7805 7797 7817 7828 7815 7812 7816 7802 7833 7816 7800 7816 7810 7806 7823 7822 7819
20 791 804 797 783 801 806 799 796 788 782 791 798 774 801 785 774 807 812 789 788 6662 6664 6664 6641 6659 6643 6633 6659 6638 6637 6654 6650 6649 6650 6642 6657 6661 6658 6634 6641 5132 5145 5132 5122 5125 5123 5123 5131 5131 5138 5136 5124 5134 5140 5150 5135 5159 5138 5138 5135 7815 7817 7813 7796 7787 7808 7818 7805 7802 7807 7793 7824 7806 7791 7807 7800 7796 7813 7812 7809
780 794 786 772 790 794 788 785 777 771 780 787 762 790 774 764 796 801 778 777 6664 6666 6666 6643 6661 6645 6635 6661 6640 6639 6656 6652 6651 6652 6644 6659 6663 6660 6636 6643 5112 5124 5112 5101 5104 5102 5102 5110 5111 5117 5115 5103 5113 5119 5129 5115 5138 5117 5117 5115 7807 7809 7805 7788 7779 7800 7810 7798 7795 7799 7785 7816 7798 7783 7799 7793 7788 7806 7804 7801
26 22 9 10 17 10 15 11 15 1 21 19 10 8 19 16 23 3 10 6072 6073 6073 6050 6068 6052 6042 6069 6047 6047 6063 6057 6058 6060 6052 6068 6071 6068 6044 6050 4724 4737 4723 4713 4714 4717 4713 4721 4722 4731 4728 4715 4726 4731 4740 4728 4749 4729 4726 4726 7040 7042 7038 7020 7012 7032 7043 7030 7027 7032 7017 7048 7031 7016 7031 7025 7021 7038 7037 7034
7 34 20 32 16 37 37 25 25 7 42 19 26 33 24 14 29 36 6047 6048 6048 6025 6044 6028 6017 6044 6022 6022 6038 6033 6033 6035 6027 6043 6046 6043 6019 6025 4738 4752 4737 4727 4728 4731 4728 4736 4736 4746 4742 4730 4740 4745 4755 4742 4763 4744 4741 4741 7023 7025 7021 7003 6995 7015 7026 7013 7010 7015 7000 7031 7014 6999 7014 7008 7004 7021 7020 7017
29 19 32 15 36 33 18 22 2 37 19 21 26 25 19 25 32 6053 6054 6054 6031 6050 6033 6023 6050 6028 6028 6044 6038 6039 6041 6033 6049 6052 6049 6025 6031 4741 4754 4740 4730 4731 4734 4730 4738 4739 4749 4745 4732 4743 4748 4757 4745 4766 4746 4743 4743 7030 7032 7028 7011 7002 7023 7033 7020 7017 7022 7007 7039 7021 7006 7021 7015 7011 7029 7027 7024
19 23 19 16 8 16 10 28 10 19 9 15 24 32 6 7 6080 6082 6081 6058 6077 6061 6050 6077 6056 6056 6071 6066 6066 6068 6060 6076 6080 6076 6053 6059 4724 4737 4723 4713 4714 4717 4713 4721 4722 4731 4728 4715 4726 4731 4740 4728 4749 4729 4726 4726 7049 7051 7047 7029 7020 7041 7052 7039 7036 7041 7026 7057 7040 7024 7040 7034 7029 7047 7045 7042
13 4 18 19 21 10 17 29 1 16 27 7 13 13 18 6063 6064 6064 6041 6059 6043 6033 6060 6038 6038 6054 6048 6049 6051 6043 6059 6062 6059 6035 6041 4722 4736 4721 4711 4712 4715 4712 4720 4720 4730 4726 4714 4724 4729 4739 4727 4748 4728 4725 4725 7030 7032 7028 7010 7002 7022 7033 7020 7017 7022 7007 7038 7021 7006 7021 7015 7011 7028 7027 7024
17 11 18 32 17 30 32 14 25 36 8 21 18 17 6068 6069 6069 6046 6065 6048 6038 6065 6043 6043 6059 6053 6054 6056 6048 6064 6067 6064 6040 6046 4709 4723 4708 4698 4699 4702 4699 4707 4707 4717 4713 4701 4711 4716 4726 4713 4734 4715 4712 4712 7028 7030 7026 7008 7000 7020 7031 7018 7015 7020 7005 7036 7019 7004 7019 7013 7009 7026 7025 7022
21 21 18 10 13 29 4 14 25 11 14 14 20 6061 6063 6063 6040 6058 6042 6031 6058 6037 6037 6052 6047 6048 6049 6042 6057 6061 6057 6034 6040 4727 4740 4726 4715 4717 4720 4716 4724 4724 4734 4731 4718 4729 4734 4743 4731 4752 4732 4729 4729 7031 7033 7029 7011 7003 7024 7034 7021 7018 7023 7008 7039 7022 7007 7022 7016 7012 7030 7028 7025
9 29 16 34 24 18 22 31 17 29 14 9 6078 6079 6079 6056 6075 6059 6048 6075 6053 6053 6069 6064 6064 6066 6058 6074 6077 6074 6050 6056 4709 4722 4708 4698 4699 4702 4699 4706 4707 4717 4713 4701 4711 4716 4726 4713 4734 4715 4712 4711 7038 7040 7036 7018 7010 7031 7041 7028 7025 7030 7015 7046 7029 7014 7029 7023 7019 7037 7035 7032
23 12 32 15 19 15 23 21 32 8 1 6081 6083 6082 6060 6078 6062 6051 6078 6057 6057 6072 6067 6068 6069 6062 6077 6081 6077 6054 6060 4716 4729 4715 4705 4706 4709 4705 4713 4714 4724 4720 4708 4718 4723 4732 4720 4741 4721 4719 4718 7046 7047 7043 7026 7017 7038 7048 7036 7033 7037 7023 7054 7037 7021 7037 7031 7026 7044 7042 7039
14 18 20 21 7 8 28 30 16 22 6071 6072 6072 6049 6067 6051 6041 6067 6046 6046 6062 6056 6057 6059 6051 6067 6070 6067 6043 6049 4738 4752 4737 4727 4729 4731 4728 4736 4736 4746 4742 4730 4740 4745 4755 4743 4764 4744 4741 4741 7047 7049 7045 7027 7019 7039 7050 7037 7034 7039 7024 7055 7038 7023 7038 7032 7028 7045 7044 7041
20 20 10 8 18 16 23 4 11 6071 6072 6072 6049 6068 6052 6041 6068 6046 6046 6062 6057 6057 6059 6051 6067 6070 6067 6043 6049 4725 4738 4724 4713 4715 4718 4714 4722 4722 4732 4728 4716 4727 4732 4741 4729 4750 4730 4727 4727 7040 7042 7038 7020 7011 7032 7043 7030 7027 7032 7017 7048 7031 7015 7031 7025 7020 7038 7036 7033
36 17 20 27 23 17 24 31 6053 6054 6054 6031 6050 6034 6023 6050 6028 6028 6044 6039 6039 6041 6033 6049 6052 6049 6025 6031 4739 4752 4738 4728 4729 4732 4728 4736 4737 4746 4743 4730 4741 4746 4755 4743 4764 4744 4741 4741 7030 7031 7027 7010 7001 7022 7032 7020 7017 7021 7007 7038 7021 7005 7021 7015 7010 7028 7026 7023
29 16 15 34 42 16 15 6090 6091 6091 6068 6086 6070 6059 6086 6065 6065 6080 6075 6076 6078 6070 6086 6089 6085 6062 6068 4726 4739 4725 4714 4716 4719 4715 4723 4723 4733 4729 4717 4728 4733 4742 4730 4751 4731 4728 4728 7059 7061 7057 7039 7031 7051 7062 7049 7046 7051 7036 7067 7050 7035 7050 7044 7040 7057 7056 7053
16 27 8 13 13 18 6062 6064 6063 6040 6059 6043 6032 6059 6038 6038 6053 6048 6048 6050 6042 6058 6062 6058 6035 6041 4723 4736 4722 4712 4713 4716 4712 4720 4721 4730 4727 4714 4725 4730 4739 4727 4748 4728 4725 4725 7030 7032 7028 7010 7002 7022 7033 7020 7017 7022 7007 7038 7021 7006 7021 7015 7011 7028 7027 7024
11 23 28 8 15 6073 6075 6074 6051 6070 6054 6043 6070 6049 6049 6064 6059 6059 6061 6053 6069 6072 6069 6046 6052 4731 4744 4730 4720 4721 4724 4720 4728 4729 4738 4735 4722 4733 4738 4747 4735 4756 4736 4733 4733 7046 7047 7043 7026 7017 7038 7048 7036 7033 7037 7023 7054 7037 7021 7037 7031 7026 7044 7042 7039
34 38 18 22 6079 6080 6080 6057 6075 6059 6048 6075 6054 6054 6070 6064 6065 6067 6059 6075 6078 6075 6051 6057 4738 4752 4737 4727 4729 4731 4728 4736 4736 4746 4742 4730 4740 4745 4755 4743 4764 4744 4741 4741 7055 7057 7053 7035 7027 7047 7058 7045 7042 7047 7032 7063 7046 7031 7046 7040 7036 7053 7052 7049
13 18 20 6061 6063 6062 6039 6058 6042 6031 6058 6037 6037 6052 6047 6047 6049 6041 6057 6060 6057 6034 6040 4716 4729 4715 4705 4706 4709 4705 4713 4714 4724 4720 4708 4718 4723 4732 4720 4741 4721 4718 4718 7025 7027 7023 7005 6997 7017 7028 7015 7012 7017 7002 7033 7016 7001 7016 7010 7006 7024 7022 7019
26 31 6049 6051 6050 6027 6046 6030 6019 6046 6025 6025 6040 6035 6035 6037 6029 6045 6049 6045 6022 6028 4724 4738 4723 4713 4714 4717 4714 4722 4722 4732 4728 4716 4726 4731 4741 4729 4749 4730 4727 4727 7018 7020 7016 6998 6989 7010 7021 7008 7005 7009 6995 7026 7009 6993 7009 7003 6998 7016 7014 7011
7 6075 6076 6076 6053 6072 6056 6045 6072 6050 6050 6066 6061 6061 6063 6055 6071 6074 6071 6047 6053 4723 4736 4722 4712 4713 4716 4712 4720 4721 4730 4727 4714 4725 4730 4739 4727 4748 4728 4725 4725 7043 7045 7041 7023 7014 7035 7046 7033 7030 7035 7020 7051 7034 7018 7034 7028 7023 7041 7039 7036
6081 6082 6082 6059 6077 6061 6050 6077 6056 6056 6071 6066 6067 6069 6061 6077 6080 6077 6053 6059 4717 4730 4716 4706 4707 4710 4706 4714 4715 4724 4721 4708 4719 4724 4733 4721 4742 4722 4719 4719 7045 7047 7043 7025 7017 7037 7048 7035 7032 7037 7022 7053 7036 7021 7036 7030 7026 7043 7042 7039
14 9 23 4 19 33 3 25 26 15 30 17 13 21 10 3 5 28 22 8725 8737 8718 8714 8705 8732 8712 8717 8718 8739 8729 8717 8728 8726 8730 8732 8735 8728 8711 8722 3718 3727 3723 3725 3712 3728 3737 3727 3720 3712 3727 3740 3726 3707 3731 3719 3729 3720 3730 3737
5 24 12 25 31 14 28 34 11 20 16 16 28 24 17 18 32 25 8719 8731 8712 8708 8699 8726 8706 8711 8712 8733 8723 8711 8722 8720 8724 8726 8729 8722 8705 8716 3704 3713 3709 3711 3698 3714 3723 3713 3706 3699 3713 3726 3712 3693 3717 3705 3715 3706 3717 3724
23 8 22 32 10 27 31 10 23 15 14 25 19 12 13 30 23 8721 8733 8714 8710 8701 8729 8708 8713 8714 8735 8725 8714 8724 8722 8727 8728 8731 8725 8707 8718 3709 3718 3714 3716 3703 3719 3728 3718 3711 3703 3718 3731 3717 3698 3721 3710 3720 3711 3721 3728
19 6 11 20 4 14 14 21 9 10 11 24 23 20 9 3 8703 8715 8696 8692 8683 8710 8690 8695 8696 8717 8707 8696 8706 8704 8708 8710 8713 8707 8689 8700 3712 3720 3716 3718 3706 3721 3730 3720 3713 3706 3720 3734 3719 3701 3724 3712 3722 3713 3724 3731
16 29 3 21 24 10 26 12 9 18 12 6 6 25 18 8721 8733 8714 8710 8701 8728 8708 8713 8713 8735 8725 8713 8724 8722 8726 8728 8731 8724 8707 8718 3715 3724 3720 3722 3709 3725 3734 3724 3717 3710 3724 3737 3723 3704 3728 3716 3726 3717 3728 3735
17 16 6 10 15 26 10 8 6 18 19 16 8 3 8708 8720 8701 8697 8688 8716 8695 8700 8701 8722 8712 8701 8712 8709 8714 8715 8718 8712 8694 8705 3717 3726 3722 3724 3711 3727 3736 3726 3719 3711 3726 3739 3725 3706 3729 3718 3728 3719 3729 3736
30 12 22 21 20 17 20 21 35 34 31 14 14 8692 8704 8685 8681 8672 8699 8679 8684 8685 8706 8696 8685 8695 8693 8697 8699 8702 8696 8678 8689 3704 3712 3709 3710 3698 3713 3722 3712 3705 3698 3712 3726 3711 3693 3716 3704 3714 3705 3716 3723
22 23 13 28 14 10 18 10 4 3 25 19 8722 8734 8715 8711 8702 8730 8709 8714 8715 8736 8726 8715 8725 8723 8728 8729 8732 8726 8708 8719 3718 3726 3723 3724 3712 3727 3737 3726 3719 3712 3727 3740 3725 3707 3730 3718 3729 3719 3730 3737
11 18 25 13 13 9 24 25 21 4 3 8702 8715 8696 8691 8683 8710 8689 8694 8695 8716 8707 8695 8706 8704 8708 8709 8712 8706 8688 8700 3715 3723 3720 3721 3709 3724 3733 3723 3716 3709 3724 3737 3722 3704 3727 3715 3725 3716 3727 3734
25 35 20 18 6 21 24 21 8 11 8708 8720 8701 8697 8688 8715 8695 8700 8701 8722 8712 8700 8711 8709 8713 8715 8718 8711 8694 8705 3726 3734 3730 3732 3719 3735 3744 3734 3727 3720 3734 3747 3733 3714 3738 3726 3736 3727 3738 3745
16 5 8 20 21 16 15 22 15 8711 8723 8704 8700 8691 8719 8698 8703 8704 8725 8716 8704 8715 8712 8717 8718 8721 8715 8697 8709 3707 3715 3711 3713 3701 3716 3725 3715 3708 3701 3715 3729 3714 3696 3719 3707 3717 3708 3719 3726
17 22 32 37 32 31 29 24 8699 8711 8692 8688 8679 8707 8686 8691 8692 8713 8703 8692 8702 8700 8705 8706 8709 8703 8685 8696 3692 3700 3696 3698 3686 3701 3710 3700 3693 3686 3701 3714 3699 3681 3704 3692 3702 3693 3704 3711
5 15 21 18 16 17 10 8708 8721 8701 8697 8689 8716 8695 8700 8701 8722 8713 8701 8712 8709 8714 8715 8718 8712 8694 8706 3709 3717 3713 3715 3703 3718 3727 3717 3710 3703 3717 3731 3716 3698 3721 3709 3719 3710 3721 3728
12 16 13 11 16 10 8712 8725 8706 8701 8693 8720 8699 8704 8705 8726 8717 8705 8716 8714 8718 8720 8722 8716 8698 8710 3714 3722 3718 3720 3707 3723 3732 3722 3715 3708 3722 3736 3721 3703 3726 3714 3724 3715 3726 3733
17 19 16 9 8 8711 8723 8704 8699 8691 8718 8697 8703 8703 8725 8715 8703 8714 8712 8716 8718 8721 8714 8696 8708 3723 3731 3727 3729 3717 3732 3741 3731 3724 3717 3731 3745 3730 3712 3735 3723 3733 3724 3735 3742
7 6 25 22 8726 8739 8720 8715 8707 8734 8713 8718 8719 8740 8731 8719 8730 8728 8732 8733 8736 8730 8712 8724 3727 3736 3732 3734 3721 3737 3746 3736 3729 3722 3736 3749 3735 3716 3740 3728 3738 3729 3740 3747
3 27 22 8726 8738 8719 8715 8706 8733 8713 8718 8718 8740 8730 8718 8729 8727 8731 8733 8736 8729 8711 8723 3721 3729 3726 3727 3715 3730 3740 3730 3722 3715 3730 3743 3728 3710 3733 3721 3732 3722 3733 3740
24 19 8723 8735 8716 8712 8703 8730 8710 8715 8716 8737 8727 8715 8726 8724 8728 8730 8733 8726 8709 8720 3721 3729 3726 3727 3715 3730 3740 3730 3722 3715 3730 3743 3728 3710 3733 3721 3732 3722 3733 3740
7 8701 8714 8695 8690 8682 8709 8688 8693 8694 8715 8706 8694 8705 8703 8707 8708 8711 8705 8687 8699 3718 3726 3723 3724 3712 3727 3736 3726 3719 3712 3726 3740 3725 3707 3730 3718 3728 3719 3730 3737
8705 8717 8698 8694 8685 8712 8692 8697 8697 8719 8709 8697 8708 8706 8710 8712 8715 8708 8691 8702 3715 3723 3719 3721 3709 3724 3733 3723 3716 3709 3723 3737 3722 3704 3727 3715 3725 3716 3727 3734
14 9 12 21 20 13 10 9 15 4 9 3 9 19 7 29 6 24 7 7417 7413 7411 7390 7389 7402 7407 7400 7401 7412 7384 7411 7401 7397 7398 7400 7387 7414 7404 7396
19 26 32 25 26 20 20 11 10 22 11 12 14 9 21 9 30 15 7426 7422 7420 7398 7397 7410 7415 7408 7410 7420 7393 7419 7410 7405 7406 7408 7396 7423 7413 7404
11 13 29 10 2 1 23 12 10 12 9 18 16 27 11 15 4 7408 7404 7402 7381 7380 7393 7398 7391 7392 7403 7375 7402 7393 7388 7389 7391 7378 7405 7396 7387
14 24 4 10 10 25 16 4 15 18 28 18 38 17 24 14 7409 7405 7403 7381 7380 7393 7399 7391 7393 7403 7376 7402 7393 7389 7390 7391 7379 7406 7396 7388
38 11 12 13 36 25 17 24 21 28 28 36 24 13 17 7396 7392 7390 7369 7368 7381 7386 7378 7380 7391 7363 7390 7380 7376 7377 7379 7366 7393 7383 7375
27 28 28 16 20 21 19 29 37 17 46 23 44 27 7432 7428 7426 7404 7403 7416 7422 7414 7416 7426 7399 7425 7416 7411 7413 7414 7402 7429 7419 7411
8 8 27 18 6 17 18 27 20 36 18 21 13 7406 7402 7400 7378 7377 7390 7396 7388 7390 7400 7373 7399 7390 7385 7387 7388 7376 7403 7393 7384
1 24 13 9 13 10 19 16 28 12 16 6 7408 7404 7402 7380 7379 7392 7398 7390 7392 7402 7375 7401 7392 7388 7389 7390 7378 7405 7395 7387
23 12 9 12 10 19 16 28 11 16 5 7408 7404 7402 7381 7380 7393 7398 7391 7392 7403 7376 7402 7393 7388 7389 7391 7378 7405 7396 7387
11 22 11 19 25 8 32 14 37 20 7432 7428 7426 7404 7403 7416 7422 7414 7416 7426 7399 7425 7416 7412 7413 7414 7402 7429 7419 7411
13 2 9 18 4 26 3 26 9 7421 7417 7415 7393 7392 7405 7410 7403 7405 7415 7388 7414 7405 7400 7401 7403 7391 7418 7408 7399
11 16 26 15 36 14 25 12 7412 7408 7406 7385 7384 7397 7402 7394 7396 7407 7379 7406 7396 7392 7393 7395 7382 7409 7399 7391
10 19 4 28 5 27 9 7420 7416 7414 7393 7392 7405 7410 7403 7405 7415 7388 7414 7405 7400 7401 7403 7390 7417 7408 7399
10 12 20 6 18 5 7414 7410 7408 7387 7386 7399 7404 7397 7398 7409 7381 7408 7398 7394 7395 7397 7384 7411 7401 7393
20 9 14 20 15 7414 7410 7408 7387 7386 7399 7404 7396 7398 7409 7381 7408 7398 7394 7395 7397 7384 7411 7401 7393
29 7 30 13 7424 7420 7418 7397 7396 7409 7414 7407 7408 7419 7391 7418 7408 7404 7405 7407 7394 7421 7411 7403
23 25 24 7415 7411 7409 7387 7387 7399 7405 7397 7399 7409 7382 7408 7399 7395 7396 7397 7385 7412 7402 7394
23 7 7419 7415 7413 7391 7390 7403 7408 7401 7403 7413 7386 7412 7403 7398 7399 7401 7388 7415 7406 7397
17 7396 7392 7390 7369 7368 7380 7386 7378 7380 7391 7363 7390 7380 7376 7377 7378 7366 7393 7383 7375
7412 7408 7406 7384 7384 7396 7402 7394 7396 7406 7379 7405 7396 7392 7393 7394 7382 7409 7399 7391
9 7 28 30 17 20 19 16 9 33 22 17 25 22 18 31 3 17 27
4 24 30 12 11 14 15 15 29 14 12 27 15 17 26 7 9 19
22 26 10 14 12 11 11 27 17 10 23 14 13 24 4 10 20
13 13 23 10 12 24 6 28 12 18 11 11 5 24 17 15
21 33 19 15 23 15 38 20 9 22 13 17 28 26 27
11 2 8 17 18 17 2 22 4 9 14 14 4 11
13 19 24 26 5 13 33 12 21 23 18 7 11
7 18 15 19 2 20 4 8 12 16 7 11
12 18 24 6 14 11 2 16 13 12 18
30 28 16 17 21 13 28 8 19 28
31 17 22 15 17 4 30 21 17
19 38 17 26 28 21 12 16
20 6 7 14 13 6 13
24 12 23 23 26 30
12 11 18 6 7
15 15 13 19
28 18 13
14 24
10

EOF
