NAME: clustered_50_s1
TYPE: TSP
DIMENSION: 50
EDGE_WEIGHT_TYPE: EXPLICIT
EDGE_WEIGHT_FORMAT: UPPER_ROW
EDGE_WEIGHT_SECTION
18 21 16 19 16 21 11 15 11 420 413 415 393 433 416 406 415 418 409 4388 4374 4391 4388 4393 4383 4386 4380 4394 4387 1909 1932 1911 1917 1931 1925 1926 1920 1923 1918 3228 3238 3247 3236 3241 3232 3231 3225 3252 3225
14 6 9 18 14 11 18 12 412 404 406 383 424 407 398 406 409 400 4405 4391 4408 4405 4411 4400 4404 4398 4411 4405 1919 1942 1920 1926 1940 1934 1935 1930 1932 1927 3245 3255 3264 3253 3258 3250 3248 3242 3270 3243
9 6 8 1 10 9 10 400 393 396 373 413 396 387 395 398 389 4407 4393 4410 4407 4412 4402 4405 4399 4413 4406 1929 1952 1931 1937 1951 1945 1946 1940 1943 1938 3238 3248 3257 3246 3251 3242 3240 3235 3262 3235
4 12 9 7 13 7 409 401 404 381 421 404 395 403 407 397 4404 4390 4407 4404 4409 4399 4402 4396 4410 4403 1921 1944 1923 1929 1943 1936 1937 1932 1935 1930 3241 3251 3260 3249 3254 3245 3243 3238 3265 3238
10 5 8 11 8 405 397 400 377 417 400 391 399 403 393 4406 4392 4409 4406 4412 4401 4405 4399 4412 4406 1925 1948 1927 1933 1947 1941 1942 1936 1939 1934 3241 3251 3260 3249 3254 3245 3243 3238 3265 3238
8 8 1 8 404 398 400 378 418 401 391 399 403 393 4399 4385 4402 4399 4405 4394 4397 4391 4405 4399 1925 1948 1927 1933 1946 1940 1941 1936 1938 1933 3230 3240 3250 3238 3244 3235 3233 3227 3255 3228
10 9 10 401 394 396 373 413 396 387 395 399 389 4407 4393 4410 4407 4412 4402 4405 4399 4413 4406 1929 1952 1931 1937 1951 1944 1945 1940 1942 1937 3238 3248 3257 3246 3251 3242 3241 3235 3263 3236
8 0 411 404 406 383 424 407 397 405 409 399 4398 4384 4401 4398 4404 4393 4396 4390 4404 4398 1919 1942 1921 1926 1940 1934 1935 1930 1932 1927 3234 3244 3253 3242 3247 3238 3237 3231 3259 3232
8 404 398 400 378 418 401 391 400 403 393 4398 4384 4401 4398 4404 4393 4396 4390 4404 4398 1924 1948 1926 1932 1946 1940 1941 1935 1938 1933 3229 3239 3249 3237 3243 3234 3232 3226 3254 3227
410 403 406 383 423 406 397 405 408 399 4398 4384 4401 4398 4404 4393 4396 4390 4404 4398 1919 1942 1921 1927 1941 1934 1936 1930 1933 1928 3234 3244 3253 3242 3247 3238 3237 3231 3259 3232
29 36 49 46 42 22 35 19 28 4692 4679 4696 4693 4699 4688 4690 4685 4698 4692 2328 2352 2330 2336 2350 2344 2345 2339 2342 2337 3312 3321 3333 3319 3323 3314 3313 3309 3336 3311
7 24 25 14 13 6 11 5 4706 4692 4709 4706 4712 4701 4703 4698 4711 4705 2322 2345 2324 2330 2344 2338 2339 2333 2336 2331 3337 3347 3358 3344 3348 3340 3339 3335 3362 3336
23 19 6 20 1 17 12 4712 4698 4715 4712 4718 4708 4709 4704 4717 4712 2325 2348 2326 2332 2346 2340 2341 2336 2338 2333 3345 3354 3366 3352 3356 3347 3346 3342 3369 3344
40 23 27 23 34 22 4698 4684 4701 4698 4704 4693 4695 4690 4703 4697 2302 2325 2304 2310 2324 2318 2319 2313 2316 2311 3343 3352 3364 3350 3354 3346 3345 3340 3367 3342
17 37 20 29 30 4730 4717 4734 4731 4737 4726 4728 4723 4736 4730 2342 2365 2344 2350 2364 2358 2359 2353 2356 2351 3358 3367 3379 3365 3369 3360 3359 3355 3382 3357
26 7 23 18 4716 4702 4719 4716 4722 4712 4714 4708 4722 4716 2325 2348 2327 2333 2347 2341 2342 2336 2339 2334 3351 3360 3372 3358 3362 3353 3352 3348 3375 3350
19 12 8 4694 4680 4697 4694 4700 4689 4691 4686 4699 4693 2315 2339 2317 2323 2337 2331 2332 2326 2329 2324 3325 3334 3346 3332 3336 3328 3327 3322 3349 3324
16 11 4711 4697 4714 4711 4717 4706 4708 4703 4716 4711 2324 2347 2326 2332 2346 2340 2341 2335 2338 2333 3344 3353 3365 3351 3355 3346 3345 3341 3368 3343
12 4704 4690 4707 4704 4710 4699 4701 4696 4709 4703 2327 2351 2329 2335 2349 2343 2344 2338 2341 2336 3330 3339 3351 3337 3341 3332 3331 3327 3354 3329
4700 4687 4704 4701 4707 4696 4698 4693 4706 4700 2318 2341 2320 2326 2339 2333 2334 2329 2331 2326 3333 3343 3354 3340 3344 3336 3335 3331 3358 3332
15 4 7 10 10 13 8 12 2 3216 3222 3224 3229 3205 3215 3225 3202 3230 3217 2639 2643 2621 2645 2657 2655 2650 2638 2640 2631
17 14 20 10 22 8 25 14 3201 3207 3209 3214 3190 3200 3210 3187 3215 3202 2634 2638 2616 2640 2651 2649 2644 2632 2635 2625
5 6 10 16 11 13 4 3217 3224 3225 3231 3207 3217 3227 3204 3231 3219 2644 2647 2625 2650 2661 2659 2654 2642 2644 2635
6 5 20 10 18 5 3213 3219 3221 3226 3202 3213 3222 3200 3227 3215 2645 2648 2626 2650 2662 2660 2655 2643 2645 2636
11 23 16 19 9 3217 3224 3225 3231 3207 3217 3227 3204 3231 3219 2650 2653 2631 2655 2667 2665 2660 2648 2650 2641
22 9 22 8 3208 3214 3216 3221 3197 3207 3217 3194 3222 3209 2643 2646 2624 2648 2660 2658 2653 2641 2643 2634
14 8 15 3219 3226 3227 3233 3208 3219 3228 3206 3233 3221 2629 2632 2610 2635 2646 2644 2639 2627 2629 2620
17 8 3208 3215 3216 3222 3198 3208 3218 3195 3223 3210 2634 2638 2616 2640 2652 2650 2644 2633 2635 2625
13 3225 3232 3233 3239 3215 3225 3234 3212 3239 3227 2636 2640 2618 2642 2653 2651 2646 2635 2637 2627
3215 3221 3223 3228 3204 3214 3224 3201 3229 3216 2640 2644 2622 2646 2658 2656 2651 2639 2641 2632
29 10 20 22 17 24 14 26 10 3397 3408 3403 3407 3418 3409 3405 3393 3419 3390
23 15 20 13 7 30 10 19 3422 3433 3429 3432 3443 3434 3430 3418 3444 3415
11 23 14 17 21 17 8 3406 3417 3413 3417 3428 3419 3414 3403 3429 3399
25 14 9 28 7 13 3417 3428 3424 3427 3438 3429 3425 3413 3439 3410
11 20 13 25 15 3403 3414 3410 3414 3425 3416 3411 3400 3426 3396
11 17 15 7 3409 3420 3416 3419 3430 3421 3417 3405 3431 3402
28 5 14 3419 3430 3426 3430 3441 3432 3427 3416 3442 3412
31 16 3392 3403 3399 3402 3414 3404 3400 3388 3414 3385
17 3422 3433 3429 3432 3443 3434 3430 3418 3444 3415
3405 3416 3412 3416 3427 3418 3413 3402 3428 3398
11 25 10 23 16 11 4 25 10
23 3 15 13 9 15 15 19
26 36 36 31 26 21 23
13 10 6 14 17 19
9 13 26 19 32
6 19 24 26
14 23 20
28 7
30

EOF
