NAME: clustered_200_s2
TYPE: TSP
DIMENSION: 200
EDGE_WEIGHT_TYPE: EXPLICIT
EDGE_WEIGHT_FORMAT: UPPER_ROW
EDGE_WEIGHT_SECTION
42 32 20 25 17 25 21 16 29 29 33 26 16 29 35 28 33 21 43 14 34 38 39 18 37 35 39 17 25 23 17 11 30 31 29 12 42 30 18 5945 5942 5965 5967 5956 5949 5950 5949 5938 5950 5945 5956 5972 5964 5963 5959 5934 5957 5944 5946 5961 5949 5942 5947 5966 5958 5969 5960 5943 5946 5934 5935 5943 5937 5945 5953 5950 5957 5943 5959 7118 7127 7111 7125 7131 7101 7108 7129 7112 7118 7128 7127 7124 7119 7126 7123 7136 7126 7130 7134 7104 7117 7122 7118 7124 7111 7135 7144 7117 7127 7116 7132 7115 7142 7116 7098 7114 7105 7122 7130 5844 5845 5832 5834 5865 5835 5840 5845 5838 5837 5827 5838 5850 5852 5850 5860 5834 5845 5836 5823 5837 5855 5844 5846 5828 5840 5862 5847 5863 5840 5839 5849 5850 5837 5828 5855 5829 5846 5844 5855 6291 6291 6295 6285 6303 6315 6285 6307 6306 6313 6292 6306 6311 6306 6298 6296 6297 6299 6283 6275 6295 6300 6295 6308 6301 6294 6303 6288 6314 6299 6307 6313 6286 6286 6309 6285 6298 6300 6287 6296
22 23 17 29 18 22 26 14 16 28 28 44 14 8 18 20 33 17 34 24 20 37 27 16 17 10 28 18 23 25 49 12 12 26 30 28 16 28 5943 5940 5963 5964 5954 5946 5948 5947 5936 5948 5942 5954 5970 5962 5961 5957 5932 5955 5942 5944 5959 5946 5940 5944 5964 5956 5967 5958 5941 5944 5932 5932 5941 5934 5943 5950 5947 5955 5941 5957 7097 7107 7090 7104 7110 7080 7087 7109 7091 7097 7108 7107 7103 7099 7105 7103 7116 7106 7110 7113 7084 7096 7101 7098 7104 7090 7114 7123 7096 7107 7095 7112 7094 7121 7095 7077 7093 7084 7101 7109 5813 5814 5801 5803 5834 5804 5809 5814 5807 5806 5796 5806 5819 5821 5819 5829 5803 5814 5805 5792 5806 5824 5813 5815 5797 5808 5831 5816 5832 5809 5808 5817 5819 5806 5797 5824 5798 5815 5813 5824 6267 6267 6272 6262 6280 6291 6261 6284 6283 6289 6269 6283 6287 6282 6275 6273 6273 6276 6260 6251 6271 6276 6272 6285 6277 6270 6279 6264 6290 6275 6283 6290 6263 6262 6285 6261 6274 6276 6264 6273
15 17 16 12 16 17 13 7 7 34 27 13 14 7 2 14 12 19 3 6 16 26 7 5 27 15 14 9 21 34 17 20 5 20 11 8 15 5959 5957 5979 5981 5971 5963 5965 5963 5953 5965 5959 5970 5987 5979 5978 5974 5949 5972 5959 5961 5976 5963 5956 5961 5981 5972 5984 5974 5957 5960 5949 5949 5958 5951 5960 5967 5964 5972 5957 5974 7118 7128 7111 7125 7131 7102 7108 7130 7112 7118 7129 7128 7124 7120 7126 7124 7137 7127 7131 7134 7105 7118 7123 7119 7125 7111 7135 7144 7117 7128 7116 7133 7115 7142 7116 7098 7114 7105 7122 7130 5834 5836 5823 5824 5855 5826 5831 5836 5829 5827 5817 5828 5840 5842 5840 5851 5824 5836 5827 5814 5827 5845 5835 5837 5819 5830 5852 5838 5854 5830 5830 5839 5840 5828 5818 5846 5819 5837 5834 5845 6289 6289 6293 6283 6301 6313 6283 6305 6304 6310 6290 6304 6309 6303 6296 6294 6294 6297 6281 6273 6292 6297 6293 6306 6299 6292 6300 6286 6312 6297 6305 6311 6284 6283 6307 6282 6296 6297 6285 6294
7 7 5 3 4 9 10 19 21 22 9 15 8 15 14 24 12 17 19 27 11 18 16 23 6 5 6 6 26 11 13 15 8 26 10 6 5948 5945 5968 5969 5959 5952 5953 5952 5941 5953 5948 5959 5975 5967 5966 5962 5937 5960 5947 5949 5964 5951 5945 5950 5969 5961 5972 5963 5946 5949 5937 5938 5946 5939 5948 5955 5952 5960 5946 5962 7112 7121 7105 7118 7125 7095 7102 7123 7106 7112 7122 7121 7117 7113 7119 7117 7130 7120 7124 7128 7098 7111 7116 7112 7118 7104 7129 7137 7111 7121 7109 7126 7109 7136 7110 7092 7108 7099 7115 7123 5832 5833 5820 5822 5853 5824 5829 5834 5827 5825 5815 5826 5838 5840 5838 5848 5822 5834 5825 5812 5825 5843 5832 5835 5817 5828 5850 5836 5851 5828 5827 5837 5838 5826 5816 5844 5817 5834 5832 5843 6283 6283 6287 6277 6295 6307 6277 6300 6298 6305 6285 6298 6303 6298 6291 6288 6289 6292 6276 6267 6287 6292 6288 6301 6293 6286 6295 6280 6306 6291 6299 6306 6278 6278 6301 6277 6290 6292 6280 6289
14 6 5 10 5 10 23 17 30 5 10 10 16 21 22 19 20 20 32 11 17 16 15 13 3 12 8 33 4 6 19 14 28 10 13 5943 5940 5963 5965 5954 5947 5948 5947 5936 5948 5943 5954 5970 5962 5961 5957 5932 5955 5942 5944 5959 5947 5940 5945 5964 5956 5967 5958 5941 5944 5932 5933 5941 5935 5943 5951 5948 5955 5941 5957 7105 7114 7098 7112 7118 7088 7095 7116 7099 7105 7115 7114 7111 7106 7113 7110 7123 7113 7117 7121 7091 7104 7109 7105 7111 7097 7122 7130 7104 7114 7103 7119 7102 7129 7103 7085 7101 7092 7109 7117 5824 5826 5813 5815 5846 5816 5821 5826 5819 5817 5808 5818 5830 5833 5831 5841 5815 5826 5817 5804 5818 5836 5825 5827 5809 5820 5843 5828 5844 5820 5820 5829 5831 5818 5809 5836 5810 5827 5825 5836 6276 6276 6280 6270 6288 6300 6270 6293 6291 6298 6277 6291 6296 6291 6284 6281 6282 6284 6268 6260 6280 6285 6281 6294 6286 6279 6288 6273 6299 6284 6292 6299 6271 6271 6294 6270 6283 6285 6273 6282
10 9 5 15 14 17 25 16 15 21 12 17 9 27 5 18 21 25 15 21 18 29 1 11 7 10 20 18 20 13 5 26 14 1 5952 5949 5972 5974 5963 5956 5958 5956 5945 5957 5952 5963 5979 5971 5971 5967 5941 5964 5952 5953 5968 5956 5949 5954 5973 5965 5976 5967 5950 5953 5941 5942 5950 5944 5952 5960 5957 5964 5950 5966 7118 7127 7111 7124 7131 7101 7108 7129 7112 7118 7128 7127 7123 7119 7125 7123 7136 7126 7130 7134 7104 7117 7122 7118 7124 7110 7135 7143 7117 7127 7115 7132 7115 7142 7116 7098 7114 7105 7121 7129 5838 5840 5827 5829 5860 5830 5835 5840 5833 5831 5822 5832 5844 5847 5845 5855 5829 5840 5831 5818 5832 5850 5839 5841 5823 5834 5856 5842 5858 5834 5834 5843 5845 5832 5822 5850 5824 5841 5839 5849 6289 6289 6294 6284 6302 6313 6283 6306 6305 6311 6291 6305 6309 6304 6297 6295 6295 6298 6282 6274 6293 6298 6294 6307 6299 6292 6301 6286 6312 6297 6305 6312 6285 6284 6307 6283 6296 6298 6286 6295
5 9 5 5 17 22 26 4 10 5 12 16 19 16 15 16 26 14 13 12 20 10 2 6 10 31 8 11 13 13 23 5 9 5948 5946 5968 5970 5960 5952 5954 5952 5942 5954 5948 5959 5976 5967 5967 5963 5938 5961 5948 5949 5965 5952 5945 5950 5970 5961 5973 5963 5946 5949 5938 5938 5947 5940 5949 5956 5953 5961 5946 5963 7110 7120 7103 7117 7123 7093 7100 7122 7104 7110 7121 7120 7116 7112 7118 7116 7128 7118 7123 7126 7097 7109 7114 7110 7117 7103 7127 7136 7109 7119 7108 7125 7107 7134 7108 7090 7106 7097 7114 7122 5829 5830 5817 5819 5850 5821 5826 5831 5824 5822 5812 5823 5835 5837 5835 5846 5819 5831 5822 5809 5822 5840 5829 5832 5814 5825 5847 5833 5849 5825 5825 5834 5835 5823 5813 5841 5814 5831 5829 5840 6281 6281 6285 6275 6294 6305 6275 6298 6297 6303 6283 6297 6301 6296 6289 6287 6287 6290 6274 6265 6285 6290 6286 6299 6291 6284 6293 6278 6304 6289 6297 6304 6276 6276 6299 6275 6288 6290 6278 6287
5 8 10 21 18 24 8 14 10 16 17 24 14 19 21 30 9 19 17 20 8 4 9 5 28 9 11 17 9 28 10 8 5945 5942 5965 5967 5957 5949 5951 5949 5939 5950 5945 5956 5973 5964 5964 5960 5935 5958 5945 5946 5961 5949 5942 5947 5967 5958 5970 5960 5943 5946 5934 5935 5943 5937 5946 5953 5950 5957 5943 5960 7109 7119 7102 7116 7122 7092 7099 7121 7103 7109 7120 7119 7115 7111 7117 7115 7127 7117 7122 7125 7096 7108 7113 7109 7116 7102 7126 7135 7108 7118 7107 7123 7106 7133 7107 7089 7105 7096 7113 7121 5829 5831 5818 5820 5851 5821 5826 5831 5824 5822 5813 5823 5835 5838 5836 5846 5820 5831 5822 5809 5823 5841 5830 5832 5814 5825 5847 5833 5849 5825 5825 5834 5836 5823 5814 5841 5815 5832 5830 5841 6280 6281 6285 6275 6293 6305 6274 6297 6296 6302 6282 6296 6301 6295 6288 6286 6286 6289 6273 6265 6284 6289 6285 6298 6290 6283 6292 6277 6304 6288 6297 6303 6276 6275 6299 6274 6288 6289 6277 6286
13 13 20 21 20 12 19 12 18 13 27 9 20 22 28 10 21 19 25 4 9 8 6 23 14 16 16 4 28 13 5 5947 5945 5967 5969 5959 5951 5953 5951 5941 5953 5947 5958 5975 5967 5966 5962 5937 5960 5947 5949 5964 5951 5944 5949 5969 5960 5972 5962 5945 5948 5937 5937 5946 5939 5948 5955 5952 5960 5945 5962 7113 7123 7106 7120 7126 7096 7103 7125 7107 7113 7124 7123 7119 7115 7121 7119 7131 7121 7126 7129 7100 7112 7117 7113 7120 7106 7130 7139 7112 7122 7111 7128 7110 7137 7111 7093 7109 7100 7117 7125 5834 5836 5823 5825 5856 5826 5831 5836 5829 5827 5818 5828 5840 5843 5841 5851 5824 5836 5827 5814 5828 5846 5835 5837 5819 5830 5852 5838 5854 5830 5830 5839 5841 5828 5818 5846 5819 5837 5834 5845 6285 6285 6289 6279 6297 6309 6279 6301 6300 6307 6286 6300 6305 6300 6292 6290 6291 6293 6277 6269 6289 6294 6289 6302 6295 6288 6296 6282 6308 6293 6301 6307 6280 6279 6303 6278 6292 6294 6281 6290
6 19 22 31 1 6 6 12 21 17 20 16 16 29 16 12 11 15 15 4 11 13 35 4 7 16 17 23 5 14 5946 5944 5966 5968 5958 5950 5952 5950 5940 5952 5946 5957 5974 5965 5965 5961 5936 5959 5946 5947 5963 5950 5943 5948 5968 5959 5971 5961 5944 5947 5936 5936 5945 5938 5947 5954 5951 5959 5944 5961 7106 7116 7099 7113 7120 7090 7096 7118 7100 7106 7117 7116 7112 7108 7114 7112 7125 7115 7119 7122 7093 7106 7111 7107 7113 7099 7124 7132 7105 7116 7104 7121 7103 7130 7105 7087 7102 7093 7110 7118 5824 5826 5813 5815 5846 5816 5821 5826 5819 5817 5808 5818 5830 5833 5831 5841 5815 5826 5817 5804 5818 5836 5825 5827 5809 5820 5842 5828 5844 5820 5820 5829 5831 5818 5809 5836 5810 5827 5825 5836 6277 6277 6281 6272 6290 6301 6271 6294 6293 6299 6279 6293 6297 6292 6285 6283 6283 6286 6270 6261 6281 6286 6282 6295 6287 6280 6289 6274 6300 6285 6293 6300 6273 6272 6295 6271 6284 6286 6274 6283
14 27 28 6 8 2 7 17 14 18 11 11 23 20 8 6 20 13 7 7 15 34 9 13 11 17 18 0 13 5952 5949 5972 5974 5963 5956 5958 5956 5945 5957 5952 5963 5979 5971 5971 5967 5941 5964 5952 5953 5968 5956 5949 5954 5973 5965 5976 5967 5950 5953 5941 5942 5950 5944 5952 5960 5957 5964 5950 5966 7112 7121 7104 7118 7125 7095 7101 7123 7106 7112 7122 7121 7117 7113 7119 7117 7130 7120 7124 7128 7098 7111 7116 7112 7118 7104 7129 7137 7111 7121 7109 7126 7109 7135 7110 7092 7108 7099 7115 7123 5829 5830 5817 5819 5850 5820 5825 5831 5824 5822 5812 5823 5835 5837 5835 5845 5819 5831 5821 5808 5822 5840 5829 5831 5814 5825 5847 5832 5848 5825 5824 5834 5835 5823 5813 5840 5814 5831 5829 5840 6282 6282 6287 6277 6295 6306 6276 6299 6298 6304 6284 6298 6302 6297 6290 6288 6288 6291 6275 6266 6286 6291 6287 6300 6292 6285 6294 6279 6305 6290 6298 6305 6278 6277 6300 6276 6289 6291 6279 6288
39 24 20 21 13 8 12 16 19 5 9 9 30 12 11 34 17 19 12 25 33 23 26 4 22 10 14 16 5965 5963 5985 5987 5977 5969 5971 5969 5959 5971 5965 5976 5993 5985 5984 5980 5955 5978 5965 5967 5982 5969 5963 5967 5987 5978 5990 5980 5963 5966 5955 5955 5964 5957 5966 5973 5970 5978 5963 5980 7125 7135 7118 7132 7138 7108 7115 7137 7119 7125 7136 7135 7131 7127 7133 7131 7143 7133 7138 7141 7112 7124 7129 7125 7132 7118 7142 7151 7124 7134 7123 7140 7122 7149 7123 7105 7121 7112 7129 7137 5841 5842 5829 5831 5862 5832 5837 5843 5835 5834 5824 5834 5847 5849 5847 5857 5831 5842 5833 5820 5834 5852 5841 5843 5826 5836 5859 5844 5860 5837 5836 5845 5847 5835 5825 5852 5826 5843 5841 5852 6295 6296 6300 6290 6308 6319 6289 6312 6311 6317 6297 6311 6316 6310 6303 6301 6301 6304 6288 6280 6299 6304 6300 6313 6305 6298 6307 6292 6319 6303 6312 6318 6291 6290 6313 6289 6303 6304 6292 6301
38 21 26 27 34 34 39 29 37 37 48 10 34 33 19 25 20 27 15 37 19 17 35 22 45 27 25 5927 5924 5947 5949 5938 5931 5933 5931 5920 5932 5927 5938 5954 5946 5946 5942 5916 5939 5927 5928 5943 5931 5924 5929 5948 5940 5951 5942 5925 5928 5916 5917 5925 5919 5928 5935 5932 5939 5925 5941 7094 7103 7086 7100 7107 7077 7083 7105 7088 7093 7104 7103 7099 7095 7101 7099 7112 7102 7106 7110 7080 7093 7098 7094 7100 7086 7111 7119 7092 7103 7091 7108 7091 7117 7092 7074 7089 7080 7097 7105 5818 5819 5806 5808 5839 5809 5814 5820 5813 5811 5801 5812 5824 5826 5824 5834 5808 5819 5810 5797 5811 5829 5818 5820 5803 5814 5836 5821 5837 5814 5813 5823 5824 5812 5802 5829 5803 5820 5818 5829 6266 6266 6270 6260 6278 6290 6260 6282 6281 6288 6267 6281 6286 6281 6273 6271 6272 6274 6258 6250 6270 6275 6270 6283 6276 6269 6278 6263 6289 6274 6282 6288 6261 6260 6284 6259 6273 6275 6262 6271
30 36 26 28 12 38 11 27 32 26 28 33 31 45 16 27 21 24 10 33 36 22 17 34 28 17 5961 5958 5981 5983 5972 5965 5966 5965 5954 5966 5961 5972 5988 5980 5979 5976 5950 5973 5961 5962 5977 5965 5958 5963 5982 5974 5985 5976 5959 5962 5950 5951 5959 5953 5961 5969 5966 5973 5959 5975 7131 7141 7124 7138 7145 7115 7121 7143 7125 7131 7142 7141 7137 7133 7139 7137 7150 7140 7144 7147 7118 7131 7136 7132 7138 7124 7149 7157 7130 7141 7129 7146 7129 7155 7130 7111 7127 7118 7135 7143 5854 5855 5842 5844 5875 5846 5850 5856 5849 5847 5837 5848 5860 5862 5860 5870 5844 5856 5846 5833 5847 5865 5854 5856 5839 5850 5872 5857 5873 5850 5849 5859 5860 5848 5838 5865 5839 5856 5854 5865 6304 6304 6308 6298 6316 6328 6298 6320 6319 6326 6305 6319 6324 6318 6311 6309 6309 6312 6296 6288 6308 6312 6308 6321 6314 6307 6315 6301 6327 6312 6320 6326 6299 6298 6322 6297 6311 6313 6300 6309
6 6 13 20 18 20 16 16 29 16 13 12 15 14 4 10 12 35 4 7 16 17 24 6 14 5946 5943 5966 5968 5957 5950 5952 5950 5940 5951 5946 5957 5974 5965 5965 5961 5936 5959 5946 5947 5962 5950 5943 5948 5968 5959 5971 5961 5944 5947 5935 5936 5944 5938 5947 5954 5951 5958 5944 5961 7106 7116 7099 7113 7120 7090 7096 7118 7100 7106 7117 7116 7112 7108 7114 7112 7125 7115 7119 7122 7093 7106 7111 7107 7113 7099 7124 7132 7105 7116 7104 7121 7103 7130 7105 7087 7102 7093 7110 7118 5825 5826 5813 5815 5846 5816 5821 5826 5819 5818 5808 5818 5831 5833 5831 5841 5815 5826 5817 5804 5818 5836 5825 5827 5809 5820 5843 5828 5844 5821 5820 5829 5831 5818 5809 5836 5810 5827 5825 5836 6277 6277 6282 6272 6290 6301 6271 6294 6293 6299 6279 6293 6297 6292 6285 6283 6283 6286 6270 6261 6281 6286 6282 6295 6287 6280 6289 6274 6300 6285 6293 6300 6273 6272 6295 6271 6284 6286 6274 6283
10 13 25 14 26 17 14 30 21 10 10 14 20 10 15 18 41 7 8 18 23 22 8 20 5947 5944 5967 5969 5958 5951 5952 5951 5940 5952 5947 5958 5974 5966 5965 5962 5936 5959 5947 5948 5963 5951 5944 5949 5968 5960 5971 5962 5945 5948 5936 5937 5945 5939 5947 5955 5952 5959 5945 5961 7104 7114 7097 7111 7117 7088 7094 7116 7098 7104 7115 7114 7110 7106 7112 7110 7123 7113 7117 7120 7091 7104 7108 7105 7111 7097 7121 7130 7103 7114 7102 7119 7101 7128 7102 7084 7100 7091 7108 7116 5821 5822 5809 5811 5842 5812 5817 5823 5816 5814 5804 5815 5827 5829 5827 5837 5811 5823 5813 5800 5814 5832 5821 5823 5806 5817 5839 5824 5840 5817 5816 5826 5827 5815 5805 5832 5806 5823 5821 5832 6275 6275 6279 6269 6287 6299 6269 6291 6290 6296 6276 6290 6295 6289 6282 6280 6280 6283 6267 6259 6278 6283 6279 6292 6285 6278 6286 6272 6298 6283 6291 6297 6270 6269 6293 6268 6282 6283 6271 6280
7 15 15 17 10 11 22 19 9 7 22 12 7 6 14 32 10 13 10 16 18 2 11 5952 5950 5972 5974 5964 5956 5958 5956 5946 5958 5952 5963 5980 5971 5971 5967 5942 5965 5952 5953 5969 5956 5949 5954 5974 5965 5977 5967 5950 5953 5942 5942 5951 5944 5953 5960 5957 5965 5950 5967 7113 7122 7106 7120 7126 7096 7103 7124 7107 7113 7123 7122 7118 7114 7121 7118 7131 7121 7125 7129 7099 7112 7117 7113 7119 7105 7130 7138 7112 7122 7111 7127 7110 7137 7111 7093 7109 7100 7117 7125 5830 5832 5819 5821 5852 5822 5827 5832 5825 5823 5814 5824 5836 5839 5837 5847 5820 5832 5823 5810 5824 5841 5831 5833 5815 5826 5848 5834 5850 5826 5826 5835 5837 5824 5814 5842 5815 5833 5830 5841 6283 6284 6288 6278 6296 6307 6277 6300 6299 6305 6285 6299 6304 6298 6291 6289 6289 6292 6276 6268 6287 6292 6288 6301 6293 6286 6295 6280 6307 6291 6300 6306 6279 6278 6301 6277 6291 6292 6280 6289
16 10 20 4 5 17 26 5 3 26 16 13 10 21 36 16 19 7 21 11 7 16 5959 5956 5978 5980 5970 5962 5964 5963 5952 5964 5958 5970 5986 5978 5977 5973 5948 5971 5958 5960 5975 5962 5956 5960 5980 5971 5983 5973 5956 5959 5948 5948 5957 5950 5959 5966 5963 5971 5956 5973 7117 7126 7110 7124 7130 7100 7107 7128 7111 7117 7127 7126 7122 7118 7125 7122 7135 7125 7129 7133 7103 7116 7121 7117 7123 7109 7134 7142 7116 7126 7115 7131 7114 7141 7115 7097 7113 7104 7121 7129 5832 5834 5821 5823 5854 5824 5829 5834 5827 5825 5816 5826 5838 5841 5839 5849 5822 5834 5825 5812 5826 5844 5833 5835 5817 5828 5850 5836 5852 5828 5828 5837 5839 5826 5816 5844 5818 5835 5832 5843 6287 6287 6291 6281 6299 6311 6281 6304 6302 6309 6288 6302 6307 6302 6295 6292 6293 6295 6279 6271 6291 6296 6292 6305 6297 6290 6299 6284 6310 6295 6303 6310 6282 6282 6305 6280 6294 6296 6284 6293
26 8 15 20 17 24 21 19 36 9 18 10 19 21 24 27 10 13 22 17 9 5961 5958 5981 5983 5972 5965 5966 5965 5954 5966 5961 5972 5988 5980 5979 5975 5950 5973 5960 5962 5977 5964 5958 5963 5982 5974 5985 5976 5959 5962 5950 5951 5959 5952 5961 5969 5966 5973 5959 5975 7126 7135 7119 7133 7139 7109 7116 7137 7120 7126 7136 7135 7132 7127 7134 7131 7144 7134 7138 7142 7112 7125 7130 7126 7132 7118 7143 7151 7125 7135 7124 7140 7123 7150 7124 7106 7122 7113 7130 7138 5845 5847 5834 5835 5866 5837 5842 5847 5840 5838 5828 5839 5851 5853 5851 5862 5835 5847 5838 5825 5838 5856 5846 5848 5830 5841 5863 5849 5865 5841 5841 5850 5851 5839 5829 5857 5830 5848 5845 5856 6297 6297 6301 6291 6309 6321 6291 6314 6313 6319 6299 6313 6317 6312 6305 6303 6303 6306 6290 6281 6301 6306 6302 6315 6307 6300 6309 6294 6320 6305 6313 6320 6292 6292 6315 6291 6304 6306 6294 6303
31 12 7 22 33 6 8 26 26 20 20 29 46 20 22 16 31 11 14 25 5959 5957 5979 5981 5971 5963 5965 5963 5953 5965 5959 5970 5987 5978 5978 5974 5949 5972 5959 5960 5976 5963 5956 5961 5981 5972 5984 5974 5957 5960 5949 5949 5958 5951 5960 5967 5964 5972 5957 5974 7113 7123 7106 7120 7126 7096 7103 7125 7107 7113 7124 7123 7119 7115 7121 7119 7131 7121 7126 7129 7100 7112 7117 7113 7120 7106 7130 7139 7112 7122 7111 7128 7110 7137 7111 7093 7109 7100 7117 7125 5826 5827 5814 5816 5847 5818 5823 5828 5821 5819 5809 5820 5832 5834 5832 5842 5816 5828 5819 5806 5819 5837 5826 5828 5811 5822 5844 5830 5845 5822 5821 5831 5832 5820 5810 5837 5811 5828 5826 5837 6283 6283 6287 6277 6295 6307 6276 6299 6298 6304 6284 6298 6303 6297 6290 6288 6288 6291 6275 6267 6286 6291 6287 6300 6292 6285 6294 6279 6306 6290 6299 6305 6278 6277 6300 6276 6290 6291 6279 6288
21 25 25 18 25 22 34 6 17 11 14 16 23 25 16 7 28 19 6 5954 5952 5974 5976 5966 5958 5960 5958 5948 5960 5954 5965 5982 5973 5973 5969 5944 5967 5954 5956 5971 5958 5951 5956 5976 5967 5979 5969 5952 5955 5944 5944 5953 5946 5955 5962 5959 5967 5952 5969 7122 7131 7115 7129 7135 7105 7112 7133 7116 7122 7132 7132 7128 7123 7130 7127 7140 7130 7135 7138 7108 7121 7126 7122 7129 7115 7139 7148 7121 7131 7120 7136 7119 7146 7120 7102 7118 7109 7126 7134 5843 5845 5832 5834 5865 5835 5840 5845 5838 5836 5827 5837 5849 5852 5850 5860 5834 5845 5836 5823 5837 5855 5844 5846 5828 5839 5861 5847 5863 5839 5839 5848 5850 5837 5827 5855 5829 5846 5843 5854 6294 6294 6298 6288 6306 6318 6288 6310 6309 6316 6295 6309 6314 6309 6301 6299 6299 6302 6286 6278 6298 6303 6298 6311 6304 6297 6305 6291 6317 6302 6310 6316 6289 6288 6312 6287 6301 6303 6290 6299
5 13 29 8 7 30 18 17 11 24 35 20 23 5 23 9 11 17 5962 5960 5982 5984 5974 5966 5968 5966 5956 5968 5962 5973 5990 5982 5981 5977 5952 5975 5962 5964 5979 5966 5959 5964 5984 5975 5987 5977 5960 5963 5952 5952 5961 5954 5963 5970 5967 5975 5960 5977 7121 7130 7114 7128 7134 7104 7111 7132 7115 7121 7131 7130 7126 7122 7129 7126 7139 7129 7133 7137 7107 7120 7125 7121 7127 7113 7138 7146 7120 7130 7119 7135 7118 7145 7119 7101 7117 7108 7125 7133 5836 5837 5824 5826 5857 5828 5833 5838 5831 5829 5819 5830 5842 5844 5842 5852 5826 5838 5829 5816 5829 5847 5836 5838 5821 5832 5854 5840 5855 5832 5831 5841 5842 5830 5820 5847 5821 5838 5836 5847 6291 6291 6295 6285 6303 6315 6285 6307 6306 6313 6292 6306 6311 6306 6298 6296 6297 6299 6283 6275 6295 6300 6295 6308 6301 6294 6303 6288 6314 6299 6307 6313 6286 6286 6309 6284 6298 6300 6287 6296
16 30 4 5 28 21 18 14 25 40 19 22 10 26 8 11 20 5961 5958 5981 5983 5973 5965 5967 5965 5955 5966 5961 5972 5989 5980 5980 5976 5951 5974 5961 5962 5977 5965 5958 5963 5983 5974 5986 5976 5959 5962 5950 5951 5959 5953 5962 5969 5966 5973 5959 5976 7118 7127 7110 7124 7131 7101 7107 7129 7112 7118 7128 7127 7123 7119 7125 7123 7136 7126 7130 7134 7104 7117 7122 7118 7124 7110 7135 7143 7117 7127 7116 7132 7115 7141 7116 7098 7114 7105 7121 7129 5832 5833 5820 5822 5853 5823 5828 5834 5827 5825 5815 5826 5838 5840 5838 5848 5822 5834 5824 5811 5825 5843 5832 5834 5817 5828 5850 5835 5851 5828 5827 5837 5838 5826 5816 5843 5817 5834 5832 5843 6287 6288 6292 6282 6300 6311 6281 6304 6303 6309 6289 6303 6308 6302 6295 6293 6293 6296 6280 6272 6291 6296 6292 6305 6297 6290 6299 6284 6311 6295 6304 6310 6283 6282 6305 6281 6295 6296 6284 6293
39 20 20 43 25 28 21 33 36 32 36 13 30 12 23 24 5975 5972 5995 5996 5986 5979 5980 5979 5968 5980 5975 5986 6002 5994 5993 5989 5964 5987 5974 5976 5991 5978 5972 5977 5996 5988 5999 5990 5973 5976 5964 5965 5973 5966 5975 5982 5979 5987 5973 5989 7134 7143 7127 7141 7147 7117 7124 7145 7128 7134 7144 7144 7140 7135 7142 7139 7152 7142 7147 7150 7121 7133 7138 7134 7141 7127 7151 7160 7133 7143 7132 7148 7131 7158 7132 7114 7130 7121 7138 7146 5848 5849 5837 5838 5869 5840 5845 5850 5843 5841 5831 5842 5854 5856 5854 5865 5838 5850 5841 5828 5841 5859 5848 5851 5833 5844 5866 5852 5868 5844 5844 5853 5854 5842 5832 5860 5833 5850 5848 5859 6304 6304 6308 6298 6316 6328 6298 6320 6319 6326 6305 6319 6324 6319 6311 6309 6310 6312 6296 6288 6308 6313 6308 6321 6314 6307 6316 6301 6327 6312 6320 6326 6299 6299 6322 6297 6311 6313 6300 6309
28 26 22 15 13 18 5 28 15 15 26 11 37 20 15 5937 5934 5957 5959 5948 5941 5943 5941 5930 5942 5937 5948 5964 5956 5956 5952 5926 5949 5937 5938 5953 5941 5934 5939 5958 5950 5961 5952 5935 5938 5926 5927 5935 5929 5938 5945 5942 5949 5935 5951 7104 7113 7097 7111 7117 7087 7094 7115 7098 7104 7114 7113 7109 7105 7112 7109 7122 7112 7116 7120 7090 7103 7108 7104 7110 7096 7121 7129 7103 7113 7102 7118 7101 7128 7102 7084 7100 7091 7108 7116 5827 5828 5815 5817 5848 5819 5824 5829 5822 5820 5810 5821 5833 5835 5833 5844 5817 5829 5820 5807 5820 5838 5828 5830 5812 5823 5845 5831 5847 5823 5823 5832 5833 5821 5811 5839 5812 5829 5827 5838 6276 6276 6280 6270 6288 6300 6270 6293 6291 6298 6277 6291 6296 6291 6284 6281 6282 6284 6268 6260 6280 6285 6280 6294 6286 6279 6288 6273 6299 6284 6292 6299 6271 6271 6294 6270 6283 6285 6272 6282
2 24 20 15 14 23 40 15 18 12 25 12 8 20 5957 5955 5977 5979 5969 5961 5963 5961 5951 5963 5957 5968 5985 5976 5976 5972 5947 5970 5957 5958 5974 5961 5954 5959 5979 5970 5982 5972 5955 5958 5946 5947 5956 5949 5958 5965 5962 5970 5955 5972 7114 7123 7107 7121 7127 7097 7104 7125 7108 7114 7124 7123 7119 7115 7121 7119 7132 7122 7126 7130 7100 7113 7118 7114 7120 7106 7131 7139 7113 7123 7112 7128 7111 7138 7112 7094 7110 7101 7118 7125 5828 5830 5817 5819 5850 5820 5825 5830 5823 5821 5812 5822 5834 5837 5835 5845 5818 5830 5821 5808 5822 5839 5829 5831 5813 5824 5846 5832 5848 5824 5824 5833 5835 5822 5812 5840 5813 5831 5828 5839 6284 6284 6288 6278 6296 6308 6278 6300 6299 6305 6285 6299 6304 6298 6291 6289 6289 6292 6276 6268 6287 6292 6288 6301 6294 6287 6295 6281 6307 6292 6300 6306 6279 6278 6302 6277 6291 6292 6280 6289
24 18 13 11 21 38 14 17 10 23 12 6 17 5957 5954 5977 5979 5968 5961 5962 5961 5950 5962 5957 5968 5984 5976 5975 5972 5946 5969 5957 5958 5973 5961 5954 5959 5978 5970 5981 5972 5955 5958 5946 5947 5955 5949 5957 5965 5962 5969 5955 5971 7114 7124 7107 7121 7127 7098 7104 7126 7108 7114 7125 7124 7120 7116 7122 7120 7133 7123 7127 7130 7101 7114 7118 7115 7121 7107 7131 7140 7113 7124 7112 7129 7111 7138 7112 7094 7110 7101 7118 7126 5829 5831 5818 5820 5851 5821 5826 5831 5824 5822 5813 5823 5835 5838 5836 5846 5820 5831 5822 5809 5823 5841 5830 5832 5814 5825 5848 5833 5849 5825 5825 5834 5836 5823 5814 5841 5815 5832 5830 5841 6284 6284 6289 6279 6297 6308 6278 6301 6300 6306 6286 6300 6304 6299 6292 6290 6290 6293 6277 6269 6288 6293 6289 6302 6294 6287 6296 6281 6307 6292 6301 6307 6280 6279 6302 6278 6291 6293 6281 6290
29 18 26 22 48 12 9 31 29 36 20 28 5933 5931 5953 5955 5945 5937 5939 5937 5927 5939 5933 5944 5961 5952 5952 5948 5923 5946 5933 5934 5950 5937 5930 5935 5955 5946 5958 5948 5931 5934 5922 5923 5932 5925 5934 5941 5938 5945 5931 5948 7091 7101 7084 7098 7104 7074 7081 7103 7085 7091 7102 7101 7097 7093 7099 7097 7109 7099 7104 7107 7078 7090 7095 7091 7098 7084 7108 7117 7090 7100 7089 7106 7088 7115 7089 7071 7087 7078 7095 7103 5809 5811 5798 5800 5831 5801 5806 5811 5804 5802 5793 5803 5815 5818 5816 5826 5800 5811 5802 5789 5803 5821 5810 5812 5794 5805 5827 5813 5829 5805 5805 5814 5816 5803 5794 5821 5795 5812 5810 5821 6262 6262 6266 6256 6274 6286 6256 6278 6277 6284 6263 6277 6282 6277 6269 6267 6268 6270 6254 6246 6266 6271 6266 6279 6272 6265 6273 6259 6285 6270 6278 6284 6257 6256 6280 6255 6269 6271 6258 6267
11 7 10 21 17 19 13 5 26 13 1 5952 5949 5972 5973 5963 5955 5957 5956 5945 5957 5952 5963 5979 5971 5970 5966 5941 5964 5951 5953 5968 5955 5949 5954 5973 5965 5976 5967 5950 5953 5941 5942 5950 5943 5952 5959 5956 5964 5950 5966 7117 7127 7110 7124 7130 7100 7107 7129 7111 7117 7128 7127 7123 7119 7125 7123 7135 7125 7130 7133 7104 7116 7121 7118 7124 7110 7134 7143 7116 7126 7115 7132 7114 7141 7115 7097 7113 7104 7121 7129 5838 5839 5826 5828 5859 5830 5835 5840 5833 5831 5821 5832 5844 5846 5844 5854 5828 5840 5831 5818 5831 5849 5838 5840 5823 5834 5856 5842 5857 5834 5833 5843 5844 5832 5822 5850 5823 5840 5838 5849 6289 6289 6293 6283 6301 6313 6283 6305 6304 6311 6290 6304 6309 6304 6296 6294 6295 6297 6281 6273 6293 6298 6293 6306 6299 6292 6300 6286 6312 6297 6305 6311 6284 6283 6307 6282 6296 6298 6285 6294
8 9 31 6 9 15 13 25 7 10 5946 5943 5966 5968 5958 5950 5952 5950 5940 5951 5946 5957 5974 5965 5965 5961 5936 5959 5946 5947 5962 5950 5943 5948 5968 5959 5971 5961 5944 5947 5935 5936 5944 5938 5947 5954 5951 5958 5944 5961 7108 7118 7101 7115 7121 7091 7098 7120 7102 7108 7119 7118 7114 7110 7116 7114 7126 7116 7121 7124 7095 7107 7112 7108 7115 7101 7125 7134 7107 7117 7106 7123 7105 7132 7106 7088 7104 7095 7112 7120 5827 5829 5816 5818 5849 5819 5824 5829 5822 5820 5811 5821 5833 5836 5834 5844 5818 5829 5820 5807 5821 5839 5828 5830 5812 5823 5845 5831 5847 5823 5823 5832 5834 5821 5811 5839 5813 5830 5827 5838 6279 6279 6284 6274 6292 6303 6273 6296 6295 6301 6281 6295 6299 6294 6287 6285 6285 6288 6272 6264 6283 6288 6284 6297 6289 6282 6291 6276 6302 6287 6295 6302 6275 6274 6297 6273 6286 6288 6276 6285
13 27 14 17 8 12 20 7 6 5954 5951 5974 5976 5965 5958 5959 5958 5947 5959 5954 5965 5981 5973 5972 5969 5943 5966 5954 5955 5970 5958 5951 5956 5975 5967 5978 5969 5952 5955 5943 5944 5952 5946 5954 5962 5959 5966 5952 5968 7117 7126 7109 7123 7130 7100 7106 7128 7111 7116 7127 7126 7122 7118 7124 7122 7135 7125 7129 7133 7103 7116 7121 7117 7123 7109 7134 7142 7115 7126 7114 7131 7114 7140 7115 7097 7112 7103 7120 7128 5835 5837 5824 5825 5856 5827 5832 5837 5830 5828 5818 5829 5841 5843 5841 5852 5825 5837 5828 5815 5828 5846 5836 5838 5820 5831 5853 5839 5855 5831 5831 5840 5841 5829 5819 5847 5820 5837 5835 5846 6287 6288 6292 6282 6300 6312 6281 6304 6303 6309 6289 6303 6308 6302 6295 6293 6293 6296 6280 6272 6291 6296 6292 6305 6297 6290 6299 6284 6311 6295 6304 6310 6283 6282 6306 6281 6295 6296 6284 6293
26 13 14 21 8 32 15 10 5942 5939 5962 5964 5953 5946 5948 5946 5936 5947 5942 5953 5970 5961 5961 5957 5932 5955 5942 5943 5958 5946 5939 5944 5964 5955 5967 5957 5940 5943 5931 5932 5940 5934 5943 5950 5947 5954 5940 5957 7108 7117 7101 7115 7121 7091 7098 7119 7102 7108 7118 7117 7113 7109 7116 7113 7126 7116 7120 7124 7094 7107 7112 7108 7114 7100 7125 7133 7107 7117 7106 7122 7105 7132 7106 7088 7104 7095 7112 7120 5830 5831 5818 5820 5851 5821 5826 5832 5824 5823 5813 5824 5836 5838 5836 5846 5820 5831 5822 5809 5823 5841 5830 5832 5814 5826 5848 5833 5849 5826 5825 5835 5836 5824 5814 5841 5815 5832 5830 5841 6280 6280 6284 6274 6292 6304 6274 6296 6295 6302 6281 6295 6300 6294 6287 6285 6285 6288 6272 6264 6284 6288 6284 6297 6290 6283 6291 6277 6303 6288 6296 6302 6275 6274 6298 6273 6287 6289 6276 6285
37 39 30 19 42 34 21 5955 5952 5975 5976 5966 5959 5960 5959 5948 5960 5955 5966 5982 5974 5973 5969 5944 5967 5954 5956 5971 5958 5952 5957 5976 5968 5979 5970 5953 5956 5944 5945 5953 5946 5955 5962 5959 5967 5953 5969 7129 7139 7122 7136 7142 7112 7119 7140 7123 7129 7139 7139 7135 7130 7137 7134 7147 7137 7142 7145 7116 7128 7133 7129 7136 7122 7146 7155 7128 7138 7127 7143 7126 7153 7127 7109 7125 7116 7133 7141 5854 5856 5843 5845 5876 5846 5851 5856 5849 5847 5838 5848 5860 5863 5861 5871 5845 5856 5847 5834 5848 5866 5855 5857 5839 5850 5872 5858 5874 5850 5850 5859 5861 5848 5838 5866 5840 5857 5855 5865 6302 6302 6306 6296 6314 6326 6296 6319 6317 6324 6304 6317 6322 6317 6310 6307 6308 6311 6295 6286 6306 6311 6307 6320 6312 6305 6314 6299 6325 6310 6318 6325 6297 6297 6320 6296 6309 6311 6299 6308
3 20 18 27 9 17 5943 5940 5963 5964 5954 5947 5948 5947 5936 5948 5943 5954 5970 5962 5961 5957 5932 5955 5942 5944 5959 5946 5940 5945 5964 5956 5967 5958 5941 5944 5932 5933 5941 5934 5943 5950 5947 5955 5941 5957 7103 7112 7096 7110 7116 7086 7093 7114 7097 7103 7113 7112 7108 7104 7111 7108 7121 7111 7115 7119 7089 7102 7107 7103 7109 7095 7120 7128 7102 7112 7101 7117 7100 7127 7101 7083 7099 7090 7107 7115 5821 5823 5810 5812 5843 5813 5818 5823 5816 5814 5805 5815 5827 5830 5828 5838 5811 5823 5814 5801 5815 5833 5822 5824 5806 5817 5839 5825 5841 5817 5817 5826 5828 5815 5805 5833 5806 5824 5821 5832 6274 6274 6278 6268 6286 6298 6268 6290 6289 6296 6275 6289 6294 6288 6281 6279 6279 6282 6266 6258 6278 6282 6278 6291 6284 6277 6285 6271 6297 6282 6290 6296 6269 6268 6292 6267 6281 6283 6270 6279
23 20 30 12 19 5940 5937 5959 5961 5951 5943 5945 5944 5933 5945 5939 5951 5967 5959 5958 5954 5929 5952 5939 5941 5956 5943 5937 5941 5961 5953 5964 5954 5937 5941 5929 5929 5938 5931 5940 5947 5944 5952 5938 5954 7100 7109 7092 7106 7113 7083 7089 7111 7094 7100 7110 7109 7105 7101 7107 7105 7118 7108 7112 7116 7086 7099 7104 7100 7106 7092 7117 7125 7099 7109 7097 7114 7097 7123 7098 7080 7096 7087 7103 7111 5819 5820 5807 5809 5840 5810 5815 5820 5813 5811 5802 5812 5825 5827 5825 5835 5809 5820 5811 5798 5812 5830 5819 5821 5803 5814 5837 5822 5838 5814 5814 5823 5825 5812 5803 5830 5804 5821 5819 5830 6271 6271 6275 6265 6283 6295 6265 6287 6286 6292 6272 6286 6291 6285 6278 6276 6276 6279 6263 6255 6274 6279 6275 6288 6281 6274 6282 6268 6294 6279 6287 6293 6266 6265 6289 6264 6278 6279 6267 6276
19 13 11 13 5962 5959 5982 5983 5973 5965 5967 5966 5955 5967 5962 5973 5989 5981 5980 5976 5951 5974 5961 5963 5978 5965 5959 5964 5983 5975 5986 5977 5960 5963 5951 5952 5960 5953 5962 5969 5966 5974 5960 5976 7122 7132 7115 7129 7136 7106 7112 7134 7116 7122 7133 7132 7128 7124 7130 7128 7141 7131 7135 7138 7109 7122 7127 7123 7129 7115 7140 7148 7121 7132 7120 7137 7119 7146 7120 7102 7118 7109 7126 7134 5839 5840 5827 5829 5860 5831 5836 5841 5834 5832 5822 5833 5845 5847 5845 5855 5829 5841 5832 5819 5832 5850 5839 5842 5824 5835 5857 5843 5858 5835 5834 5844 5845 5833 5823 5851 5824 5841 5839 5850 6293 6293 6297 6287 6305 6317 6287 6309 6308 6315 6294 6308 6313 6308 6300 6298 6299 6301 6285 6277 6297 6302 6297 6310 6303 6296 6305 6290 6316 6301 6309 6315 6288 6288 6311 6286 6300 6302 6289 6298
31 17 6 5948 5945 5967 5969 5959 5951 5953 5952 5941 5953 5948 5959 5975 5967 5966 5962 5937 5960 5947 5949 5964 5951 5945 5949 5969 5961 5972 5962 5945 5948 5937 5937 5946 5939 5948 5955 5952 5960 5945 5962 7115 7125 7108 7122 7128 7098 7105 7126 7109 7115 7125 7125 7121 7116 7123 7120 7133 7123 7128 7131 7102 7114 7119 7115 7122 7108 7132 7141 7114 7124 7113 7129 7112 7139 7113 7095 7111 7102 7119 7127 5837 5839 5826 5828 5859 5829 5834 5839 5832 5830 5821 5831 5843 5845 5843 5854 5827 5839 5830 5817 5831 5848 5838 5840 5822 5833 5855 5841 5857 5833 5833 5842 5843 5831 5821 5849 5822 5840 5837 5848 6287 6287 6291 6281 6299 6311 6281 6304 6302 6309 6288 6302 6307 6302 6295 6292 6293 6295 6279 6271 6291 6296 6292 6305 6297 6290 6299 6284 6310 6295 6303 6310 6282 6282 6305 6281 6294 6296 6283 6293
18 25 5969 5966 5989 5991 5980 5973 5975 5973 5963 5974 5969 5980 5997 5988 5988 5984 5959 5982 5969 5970 5985 5973 5966 5971 5991 5982 5994 5984 5967 5970 5958 5959 5967 5961 5970 5977 5974 5981 5967 5984 7124 7134 7117 7131 7138 7108 7114 7136 7118 7124 7135 7134 7130 7126 7132 7130 7143 7133 7137 7140 7111 7124 7129 7125 7131 7117 7142 7150 7123 7134 7122 7139 7121 7148 7122 7104 7120 7111 7128 7136 5837 5838 5825 5827 5858 5829 5834 5839 5832 5830 5820 5831 5843 5845 5843 5853 5827 5839 5829 5817 5830 5848 5837 5839 5822 5833 5855 5841 5856 5833 5832 5842 5843 5831 5821 5848 5822 5839 5837 5848 6294 6294 6298 6288 6306 6318 6288 6310 6309 6316 6295 6309 6314 6309 6301 6299 6299 6302 6286 6278 6298 6303 6298 6311 6304 6297 6305 6291 6317 6302 6310 6316 6289 6288 6312 6287 6301 6303 6290 6299
13 5952 5949 5972 5973 5963 5956 5957 5956 5945 5957 5952 5963 5979 5971 5970 5966 5941 5964 5951 5953 5968 5955 5949 5954 5973 5965 5976 5967 5950 5953 5941 5942 5950 5943 5952 5959 5956 5964 5950 5966 7111 7121 7104 7118 7125 7095 7101 7123 7105 7111 7122 7121 7117 7113 7119 7117 7130 7120 7124 7127 7098 7111 7116 7112 7118 7104 7129 7137 7110 7121 7109 7126 7108 7135 7110 7091 7107 7098 7115 7123 5829 5830 5817 5819 5850 5820 5825 5830 5823 5821 5812 5822 5834 5837 5835 5845 5819 5830 5821 5808 5822 5840 5829 5831 5813 5824 5847 5832 5848 5824 5824 5833 5835 5822 5813 5840 5814 5831 5829 5840 6282 6282 6286 6276 6294 6306 6276 6298 6297 6304 6283 6297 6302 6297 6290 6287 6288 6290 6274 6266 6286 6291 6286 6299 6292 6285 6294 6279 6305 6290 6298 6304 6277 6277 6300 6275 6289 6291 6278 6288
5952 5949 5972 5974 5963 5956 5958 5956 5945 5957 5952 5963 5979 5971 5971 5967 5941 5964 5952 5953 5968 5956 5949 5954 5973 5965 5976 5967 5950 5953 5941 5942 5950 5944 5953 5960 5957 5964 5950 5966 7117 7127 7110 7124 7130 7100 7107 7129 7111 7117 7128 7127 7123 7119 7125 7123 7135 7125 7130 7133 7104 7116 7121 7117 7124 7110 7134 7143 7116 7126 7115 7132 7114 7141 7115 7097 7113 7104 7121 7129 5838 5839 5826 5828 5859 5829 5834 5839 5832 5831 5821 5831 5844 5846 5844 5854 5828 5839 5830 5817 5831 5849 5838 5840 5822 5833 5856 5841 5857 5834 5833 5842 5844 5831 5822 5849 5823 5840 5838 5849 6289 6289 6293 6283 6301 6313 6283 6305 6304 6311 6290 6304 6309 6304 6296 6294 6294 6297 6281 6273 6293 6297 6293 6306 6299 6292 6300 6286 6312 6297 6305 6311 6284 6283 6307 6282 6296 6298 6285 6294
4 20 23 12 6 7 7 8 16 29 11 28 19 21 17 18 15 1 10 16 4 7 11 22 13 28 15 3 6 11 19 13 8 4 8 14 14 9 21 3180 3180 3170 3169 3184 3163 3176 3170 3169 3185 3176 3161 3183 3167 3193 3166 3167 3172 3173 3184 3148 3182 3175 3178 3178 3178 3172 3193 3156 3182 3156 3176 3194 3194 3176 3161 3159 3169 3176 3172 4468 4467 4455 4448 4471 4453 4447 4448 4450 4447 4450 4457 4476 4459 4455 4468 4467 4435 4456 4449 4465 4487 4472 4464 4441 4468 4468 4453 4476 4460 4475 4460 4466 4448 4443 4483 4461 4451 4450 4456 3295 3318 3315 3311 3316 3317 3294 3316 3320 3330 3314 3305 3329 3314 3303 3308 3308 3325 3317 3286 3313 3299 3314 3316 3305 3308 3306 3316 3322 3311 3321 3322 3304 3298 3325 3326 3305 3313 3292 3316
23 25 15 7 10 10 8 15 27 14 30 22 25 18 15 17 3 9 19 8 9 10 24 16 30 18 1 5 8 15 11 5 7 11 13 16 11 24 3178 3178 3169 3167 3182 3161 3174 3168 3168 3183 3174 3159 3181 3165 3191 3164 3166 3170 3171 3182 3146 3181 3173 3177 3177 3176 3170 3192 3154 3181 3154 3174 3192 3193 3175 3159 3157 3167 3174 3170 4465 4464 4452 4445 4468 4450 4443 4445 4447 4444 4447 4454 4473 4456 4452 4465 4464 4432 4452 4446 4462 4484 4469 4461 4438 4465 4465 4450 4473 4457 4472 4457 4463 4445 4439 4480 4458 4448 4447 4453 3292 3316 3312 3308 3313 3314 3292 3313 3318 3328 3312 3302 3326 3312 3301 3305 3306 3322 3315 3283 3310 3296 3311 3313 3303 3305 3303 3313 3320 3308 3319 3319 3302 3295 3322 3323 3302 3311 3289 3313
3 10 16 16 18 28 19 33 9 8 2 14 7 33 10 20 20 4 17 25 20 2 7 12 6 22 19 31 33 24 28 20 12 18 9 25 18 3175 3174 3165 3163 3179 3158 3170 3164 3164 3179 3170 3155 3177 3162 3188 3161 3162 3167 3167 3179 3142 3177 3170 3173 3173 3172 3166 3188 3150 3177 3150 3170 3189 3189 3171 3156 3153 3163 3170 3167 4474 4473 4461 4453 4476 4458 4452 4454 4456 4453 4455 4463 4482 4464 4460 4473 4473 4440 4461 4454 4471 4493 4477 4469 4446 4473 4474 4458 4481 4465 4480 4466 4471 4454 4448 4489 4466 4457 4456 4461 3295 3319 3315 3312 3316 3318 3295 3317 3321 3331 3315 3305 3330 3315 3304 3308 3309 3326 3318 3287 3313 3299 3315 3317 3306 3309 3306 3316 3323 3311 3322 3322 3305 3299 3325 3327 3305 3314 3293 3316
13 18 19 21 30 19 32 11 6 5 17 7 34 10 23 21 6 20 28 20 2 9 9 10 24 21 33 33 25 30 23 14 18 10 28 22 3171 3171 3162 3160 3175 3155 3167 3161 3161 3176 3167 3152 3174 3158 3184 3157 3159 3164 3164 3175 3139 3174 3167 3170 3170 3169 3163 3185 3147 3174 3147 3167 3185 3186 3168 3153 3150 3160 3167 3163 4472 4471 4459 4451 4474 4456 4450 4452 4454 4451 4453 4461 4480 4463 4458 4471 4471 4438 4459 4452 4469 4491 4476 4467 4444 4471 4472 4456 4479 4463 4478 4464 4469 4452 4446 4487 4464 4455 4454 4459 3293 3317 3313 3309 3314 3315 3292 3314 3319 3328 3312 3303 3327 3312 3301 3306 3307 3323 3316 3284 3311 3297 3312 3314 3303 3306 3304 3314 3320 3309 3320 3320 3303 3296 3323 3324 3303 3312 3290 3314
10 6 8 18 18 33 4 17 8 11 10 28 11 12 16 7 8 15 15 12 6 21 4 14 13 23 28 20 20 11 5 16 9 15 13 3180 3180 3171 3169 3184 3163 3176 3170 3170 3185 3176 3161 3183 3167 3193 3166 3168 3172 3173 3184 3148 3183 3175 3179 3179 3178 3172 3194 3156 3183 3156 3176 3194 3194 3177 3162 3159 3169 3176 3172 4474 4473 4461 4454 4477 4459 4453 4455 4457 4453 4456 4464 4482 4465 4461 4474 4474 4441 4462 4455 4471 4494 4478 4470 4447 4474 4475 4459 4482 4466 4481 4467 4472 4454 4449 4490 4467 4458 4456 4462 3298 3322 3319 3315 3319 3321 3298 3320 3324 3334 3318 3308 3333 3318 3307 3311 3312 3329 3321 3290 3316 3302 3318 3320 3309 3312 3309 3319 3326 3314 3325 3325 3308 3302 3328 3330 3308 3317 3296 3320
8 10 14 11 26 7 24 16 21 11 18 10 5 7 12 7 13 7 18 9 23 12 6 3 15 18 11 12 9 4 9 9 14 22 3175 3175 3166 3164 3180 3159 3171 3165 3165 3180 3171 3156 3178 3162 3188 3161 3163 3168 3168 3180 3143 3178 3171 3174 3174 3173 3167 3189 3151 3178 3151 3171 3189 3190 3172 3157 3154 3164 3171 3167 4466 4465 4453 4446 4469 4450 4444 4446 4448 4445 4448 4455 4474 4457 4452 4465 4465 4433 4453 4446 4463 4485 4470 4461 4439 4466 4466 4451 4473 4458 4472 4458 4463 4446 4440 4481 4459 4449 4448 4454 3291 3315 3311 3307 3312 3314 3291 3313 3317 3327 3311 3301 3326 3311 3300 3304 3305 3322 3314 3283 3309 3295 3310 3312 3302 3305 3302 3312 3319 3307 3318 3318 3301 3294 3321 3322 3301 3310 3289 3312
3 12 18 33 8 23 14 15 14 24 14 7 15 12 2 9 14 18 10 26 10 10 11 18 25 18 15 5 6 16 12 9 14 3183 3182 3173 3171 3187 3166 3178 3172 3172 3187 3179 3164 3185 3170 3196 3169 3170 3175 3175 3187 3150 3185 3178 3181 3181 3180 3174 3196 3158 3185 3159 3179 3197 3197 3179 3164 3162 3171 3178 3175 4474 4473 4461 4453 4476 4458 4452 4454 4456 4453 4455 4463 4482 4465 4460 4473 4473 4440 4461 4454 4471 4493 4477 4469 4446 4473 4474 4458 4481 4465 4480 4466 4471 4454 4448 4489 4466 4457 4456 4461 3299 3323 3319 3315 3320 3321 3299 3320 3325 3334 3319 3309 3333 3318 3308 3312 3313 3329 3322 3290 3317 3303 3318 3320 3310 3312 3310 3320 3327 3315 3326 3326 3309 3302 3329 3330 3309 3318 3296 3320
11 20 35 11 26 17 15 17 25 17 8 16 15 3 7 16 20 13 29 12 10 12 17 26 20 14 4 9 18 15 7 14 3185 3185 3175 3174 3189 3168 3181 3175 3175 3190 3181 3166 3188 3172 3198 3171 3172 3177 3178 3189 3153 3187 3180 3183 3183 3183 3177 3198 3161 3187 3161 3181 3199 3199 3181 3166 3164 3174 3181 3177 4475 4474 4462 4455 4478 4459 4453 4455 4457 4454 4457 4464 4483 4466 4461 4474 4474 4442 4462 4455 4472 4494 4479 4470 4448 4475 4475 4460 4482 4467 4481 4467 4472 4455 4449 4490 4468 4458 4457 4463 3301 3325 3321 3317 3322 3323 3300 3322 3327 3336 3321 3311 3335 3320 3310 3314 3315 3331 3324 3292 3319 3305 3320 3322 3312 3314 3312 3322 3329 3317 3328 3328 3311 3304 3331 3332 3311 3320 3298 3322
23 35 19 35 26 26 25 20 24 9 17 24 11 4 18 29 21 37 22 9 13 9 21 19 7 7 16 21 22 6 23 3186 3186 3176 3175 3190 3169 3181 3176 3175 3191 3182 3167 3189 3173 3199 3172 3173 3178 3179 3190 3154 3188 3181 3184 3184 3183 3178 3199 3162 3188 3162 3182 3200 3200 3182 3167 3165 3175 3182 3178 4470 4469 4457 4450 4473 4455 4449 4450 4452 4449 4452 4459 4478 4461 4457 4470 4469 4437 4458 4451 4467 4489 4474 4466 4443 4470 4470 4455 4478 4462 4477 4462 4468 4450 4444 4485 4463 4454 4452 4458 3298 3322 3319 3315 3319 3321 3298 3320 3324 3334 3318 3309 3333 3318 3307 3311 3312 3329 3321 3290 3316 3303 3318 3320 3309 3312 3310 3319 3326 3314 3325 3325 3308 3302 3328 3330 3308 3317 3296 3320
16 14 24 19 29 12 16 9 15 6 16 17 23 5 19 14 19 18 14 10 20 15 7 19 19 13 2 10 25 31 3165 3164 3155 3154 3169 3148 3160 3155 3154 3169 3161 3146 3167 3152 3178 3151 3152 3157 3157 3169 3132 3167 3160 3163 3163 3162 3156 3178 3140 3167 3141 3161 3179 3179 3161 3146 3144 3153 3160 3157 4457 4456 4444 4436 4460 4441 4435 4437 4439 4436 4439 4446 4465 4448 4443 4456 4456 4423 4444 4437 4454 4476 4461 4452 4430 4456 4457 4442 4464 4449 4463 4449 4454 4437 4431 4472 4449 4440 4439 4445 3281 3305 3301 3297 3302 3303 3281 3302 3307 3316 3301 3291 3315 3301 3290 3294 3295 3311 3304 3272 3299 3285 3300 3302 3292 3294 3292 3302 3309 3297 3308 3308 3291 3284 3311 3312 3291 3300 3278 3302
29 37 34 44 26 18 24 29 19 31 32 36 19 33 29 29 34 27 23 28 17 17 29 33 28 18 25 38 47 3151 3150 3141 3140 3155 3134 3146 3141 3140 3156 3147 3132 3154 3138 3164 3137 3138 3143 3143 3155 3119 3153 3146 3149 3149 3148 3142 3164 3127 3153 3127 3147 3165 3165 3147 3132 3130 3140 3147 3143 4441 4440 4428 4421 4444 4426 4419 4421 4423 4420 4423 4430 4449 4432 4428 4441 4440 4408 4429 4422 4438 4460 4445 4437 4414 4441 4441 4426 4449 4433 4448 4433 4439 4421 4415 4456 4434 4424 4423 4429 3265 3289 3286 3282 3287 3288 3265 3287 3291 3301 3285 3276 3300 3285 3274 3278 3279 3296 3288 3257 3284 3270 3285 3287 3276 3279 3277 3287 3293 3282 3292 3293 3275 3269 3296 3297 3276 3284 3263 3287
17 8 15 7 25 7 11 13 5 9 17 12 11 2 18 5 13 11 22 25 17 19 12 3 12 5 17 17 3176 3176 3167 3165 3180 3159 3172 3166 3166 3181 3172 3157 3179 3163 3189 3162 3164 3168 3169 3180 3144 3179 3171 3175 3175 3174 3168 3190 3152 3178 3152 3172 3190 3190 3173 3157 3155 3165 3172 3168 4470 4469 4458 4450 4473 4455 4449 4451 4453 4450 4452 4460 4478 4461 4457 4470 4470 4437 4458 4451 4467 4490 4474 4466 4443 4470 4471 4455 4478 4462 4477 4463 4468 4450 4445 4486 4463 4454 4452 4458 3294 3318 3314 3310 3315 3317 3294 3316 3320 3330 3314 3304 3329 3314 3303 3307 3308 3325 3317 3286 3312 3298 3314 3316 3305 3308 3305 3315 3322 3310 3321 3321 3304 3298 3324 3325 3304 3313 3292 3315
9 18 13 39 16 28 27 11 25 33 26 6 15 10 14 30 27 38 39 30 36 28 20 24 16 32 23 3172 3171 3162 3161 3176 3155 3167 3162 3161 3177 3168 3153 3175 3159 3185 3158 3159 3164 3164 3176 3140 3174 3167 3170 3170 3170 3163 3185 3147 3174 3148 3168 3186 3186 3168 3153 3151 3161 3168 3164 4475 4474 4462 4455 4478 4460 4453 4455 4457 4454 4457 4464 4483 4466 4462 4474 4474 4442 4462 4456 4472 4494 4479 4471 4448 4475 4475 4460 4482 4467 4482 4467 4473 4455 4449 4490 4468 4458 4457 4463 3295 3319 3315 3311 3316 3317 3295 3316 3321 3330 3315 3305 3329 3314 3304 3308 3309 3325 3318 3286 3313 3299 3314 3316 3306 3308 3306 3316 3322 3311 3322 3322 3305 3298 3325 3326 3305 3314 3292 3316
12 8 33 10 19 20 3 16 23 20 4 7 14 5 21 19 30 33 24 27 19 11 18 9 23 16 3176 3176 3167 3165 3181 3160 3172 3166 3166 3181 3172 3157 3179 3163 3189 3162 3164 3169 3169 3181 3144 3179 3172 3175 3175 3174 3168 3190 3152 3179 3152 3172 3191 3191 3173 3158 3155 3165 3172 3168 4475 4474 4462 4455 4478 4459 4453 4455 4457 4454 4457 4464 4483 4466 4461 4474 4474 4442 4462 4455 4472 4494 4479 4470 4448 4475 4475 4460 4482 4467 4481 4467 4472 4455 4449 4490 4468 4458 4457 4463 3297 3321 3317 3313 3318 3319 3297 3318 3323 3332 3317 3307 3331 3316 3306 3310 3311 3327 3320 3288 3315 3301 3316 3318 3308 3310 3308 3318 3324 3313 3324 3324 3307 3300 3327 3328 3307 3316 3294 3318
19 39 21 22 27 14 17 22 27 15 15 26 10 25 24 33 39 31 30 19 17 27 19 21 6 3188 3188 3179 3177 3192 3171 3184 3178 3178 3193 3184 3169 3191 3175 3201 3174 3176 3180 3181 3192 3156 3191 3183 3187 3187 3186 3180 3202 3164 3190 3164 3184 3202 3202 3185 3170 3167 3177 3184 3180 4486 4485 4473 4465 4488 4470 4464 4466 4468 4465 4467 4475 4494 4476 4472 4485 4485 4452 4473 4466 4482 4505 4489 4481 4458 4485 4486 4470 4493 4477 4492 4478 4483 4466 4460 4501 4478 4469 4467 4473 3308 3332 3329 3325 3329 3331 3308 3330 3334 3344 3328 3318 3343 3328 3317 3321 3322 3339 3331 3300 3326 3313 3328 3330 3319 3322 3320 3330 3336 3324 3335 3335 3318 3312 3338 3340 3318 3327 3306 3330
26 2 16 14 5 15 23 13 8 5 12 9 17 14 26 26 17 24 18 9 11 3 24 22 3170 3170 3161 3159 3175 3154 3166 3160 3160 3175 3166 3151 3173 3157 3183 3156 3158 3163 3163 3175 3138 3173 3166 3169 3169 3168 3162 3184 3146 3173 3146 3166 3184 3185 3167 3152 3149 3159 3166 3162 4467 4466 4454 4447 4470 4451 4445 4447 4449 4446 4449 4456 4475 4458 4453 4466 4466 4434 4454 4448 4464 4486 4471 4463 4440 4467 4467 4452 4474 4459 4474 4459 4464 4447 4441 4482 4460 4450 4449 4455 3289 3313 3310 3306 3310 3312 3289 3311 3315 3325 3309 3300 3324 3309 3298 3302 3303 3320 3313 3281 3308 3294 3309 3311 3300 3303 3301 3311 3317 3306 3316 3316 3299 3293 3319 3321 3300 3308 3287 3311
24 17 12 29 22 23 13 34 26 35 30 15 14 12 1 9 13 22 22 15 24 25 39 3167 3166 3157 3156 3171 3150 3162 3157 3156 3171 3163 3148 3169 3154 3180 3153 3154 3159 3159 3171 3134 3169 3162 3165 3165 3164 3158 3180 3142 3169 3143 3163 3181 3181 3163 3148 3146 3155 3162 3159 4450 4449 4437 4430 4453 4435 4429 4431 4433 4429 4432 4440 4458 4441 4437 4450 4449 4417 4438 4431 4447 4469 4454 4446 4423 4450 4451 4435 4458 4442 4457 4442 4448 4430 4425 4466 4443 4434 4432 4438 3278 3302 3298 3294 3299 3301 3278 3300 3304 3314 3298 3288 3313 3298 3287 3291 3292 3308 3301 3270 3296 3282 3297 3299 3289 3292 3289 3299 3306 3294 3305 3305 3288 3281 3308 3309 3288 3297 3276 3299
15 12 7 14 22 11 10 5 13 10 16 12 24 24 15 22 17 8 9 2 23 24 3170 3169 3160 3158 3174 3153 3165 3159 3159 3174 3166 3150 3172 3157 3183 3156 3157 3162 3162 3174 3137 3172 3165 3168 3168 3167 3161 3183 3145 3172 3145 3165 3184 3184 3166 3151 3149 3158 3165 3162 4465 4464 4452 4445 4468 4450 4443 4445 4447 4444 4447 4454 4473 4456 4452 4465 4464 4432 4452 4446 4462 4484 4469 4461 4438 4465 4465 4450 4473 4457 4472 4457 4463 4445 4439 4480 4458 4448 4447 4453 3288 3312 3308 3304 3309 3310 3288 3309 3314 3323 3308 3298 3322 3308 3297 3301 3302 3318 3311 3280 3306 3292 3307 3309 3299 3301 3299 3309 3316 3304 3315 3315 3298 3291 3318 3319 3298 3307 3285 3309
10 17 5 8 10 22 14 28 15 3 5 11 18 12 8 5 8 13 14 10 21 3179 3179 3170 3168 3183 3162 3175 3169 3169 3184 3175 3160 3182 3166 3192 3165 3167 3171 3172 3183 3147 3182 3174 3178 3178 3177 3171 3193 3155 3181 3155 3175 3193 3193 3176 3160 3158 3168 3175 3171 4467 4466 4454 4447 4470 4452 4446 4448 4449 4446 4449 4456 4475 4458 4454 4467 4466 4434 4455 4448 4464 4486 4471 4463 4440 4467 4467 4452 4475 4459 4474 4459 4465 4447 4442 4483 4460 4451 4449 4455 3294 3318 3314 3310 3315 3316 3293 3315 3320 3329 3313 3304 3328 3313 3302 3307 3308 3324 3317 3285 3312 3298 3313 3315 3304 3307 3305 3315 3321 3310 3321 3321 3304 3297 3324 3325 3304 3313 3291 3315
17 13 18 1 21 14 24 18 8 4 14 12 4 13 14 11 4 12 19 28 3170 3169 3160 3158 3174 3153 3165 3159 3159 3174 3166 3151 3172 3157 3183 3156 3157 3162 3162 3174 3137 3172 3165 3168 3168 3167 3161 3183 3145 3172 3146 3165 3184 3184 3166 3151 3149 3158 3165 3162 4459 4458 4446 4439 4462 4444 4437 4439 4441 4438 4441 4448 4467 4450 4446 4459 4458 4426 4446 4440 4456 4478 4463 4455 4432 4459 4459 4444 4467 4451 4466 4451 4457 4439 4433 4474 4452 4442 4441 4447 3284 3308 3305 3301 3306 3307 3284 3306 3310 3320 3304 3295 3319 3304 3293 3297 3298 3315 3307 3276 3303 3289 3304 3306 3295 3298 3296 3306 3312 3301 3311 3312 3294 3288 3315 3316 3295 3303 3282 3306
14 21 16 5 3 14 4 18 16 27 29 21 25 17 8 15 6 22 18 3175 3175 3166 3164 3179 3158 3171 3165 3165 3180 3171 3156 3178 3162 3188 3161 3162 3167 3168 3179 3143 3178 3170 3174 3173 3173 3167 3188 3151 3177 3151 3171 3189 3189 3172 3156 3154 3164 3171 3167 4472 4471 4459 4452 4475 4457 4450 4452 4454 4451 4454 4461 4480 4463 4459 4472 4471 4439 4460 4453 4469 4491 4476 4468 4445 4472 4472 4457 4480 4464 4479 4464 4470 4452 4447 4487 4465 4455 4454 4460 3295 3319 3315 3311 3316 3317 3294 3316 3321 3330 3314 3305 3329 3314 3303 3308 3309 3325 3318 3286 3313 3299 3314 3316 3305 3308 3306 3316 3322 3311 3322 3322 3305 3298 3325 3326 3305 3314 3292 3316
8 13 19 11 27 11 8 9 16 23 17 13 3 6 15 13 9 16 3182 3182 3172 3171 3186 3165 3178 3172 3171 3187 3178 3163 3185 3169 3195 3168 3169 3174 3175 3186 3150 3184 3177 3180 3180 3180 3174 3195 3158 3184 3158 3178 3196 3196 3178 3163 3161 3171 3178 3174 4472 4471 4459 4452 4475 4456 4450 4452 4454 4451 4454 4461 4480 4463 4458 4471 4471 4439 4459 4452 4469 4491 4476 4467 4445 4472 4472 4457 4479 4464 4478 4464 4469 4452 4446 4487 4465 4455 4454 4460 3298 3322 3318 3314 3319 3320 3297 3319 3324 3333 3317 3308 3332 3317 3306 3311 3312 3328 3321 3289 3316 3302 3317 3319 3308 3311 3309 3319 3325 3314 3325 3325 3308 3301 3328 3329 3308 3317 3295 3319
18 27 19 35 19 10 14 13 24 20 10 5 14 21 21 2 19 3187 3187 3178 3176 3191 3170 3183 3177 3177 3192 3183 3168 3190 3174 3200 3173 3175 3179 3180 3191 3155 3190 3182 3186 3186 3185 3179 3201 3163 3189 3163 3183 3201 3201 3184 3168 3166 3176 3183 3179 4473 4472 4460 4453 4476 4458 4452 4454 4455 4452 4455 4462 4481 4464 4460 4473 4472 4440 4461 4454 4470 4492 4477 4469 4446 4473 4473 4458 4481 4465 4480 4465 4471 4453 4448 4489 4466 4457 4455 4461 3301 3325 3321 3317 3322 3323 3300 3322 3327 3336 3320 3311 3335 3320 3310 3314 3315 3331 3324 3292 3319 3305 3320 3322 3312 3314 3312 3322 3329 3317 3328 3328 3311 3304 3331 3332 3311 3320 3298 3322
21 13 23 17 9 4 15 13 5 13 14 10 4 11 20 28 3169 3169 3160 3158 3174 3153 3165 3159 3159 3174 3165 3150 3172 3157 3182 3156 3157 3162 3162 3174 3137 3172 3165 3168 3168 3167 3161 3183 3145 3172 3145 3165 3183 3184 3166 3151 3148 3158 3165 3162 4459 4458 4446 4439 4462 4444 4438 4440 4442 4438 4441 4449 4467 4450 4446 4459 4459 4426 4447 4440 4456 4479 4463 4455 4432 4459 4460 4444 4467 4451 4466 4452 4457 4439 4434 4475 4452 4443 4441 4447 3285 3308 3305 3301 3306 3307 3284 3306 3311 3320 3304 3295 3319 3304 3293 3298 3299 3315 3308 3276 3303 3289 3304 3306 3295 3298 3296 3306 3312 3301 3312 3312 3295 3288 3315 3316 3295 3304 3282 3306
9 11 8 24 21 32 34 25 30 22 14 19 10 27 20 3173 3173 3164 3162 3177 3156 3169 3163 3163 3178 3169 3154 3176 3160 3186 3159 3160 3165 3166 3177 3141 3176 3168 3172 3171 3171 3165 3186 3149 3175 3149 3169 3187 3187 3170 3154 3152 3162 3169 3165 4473 4472 4460 4453 4476 4458 4451 4453 4455 4452 4455 4462 4481 4464 4460 4473 4472 4440 4461 4454 4470 4492 4477 4469 4446 4473 4473 4458 4481 4465 4480 4465 4471 4453 4447 4488 4466 4456 4455 4461 3294 3318 3315 3311 3315 3317 3294 3316 3320 3330 3314 3304 3329 3314 3303 3307 3308 3325 3317 3286 3312 3298 3314 3316 3305 3308 3306 3316 3322 3310 3321 3321 3304 3298 3324 3326 3304 3313 3292 3316
16 5 15 12 24 26 18 21 14 5 12 4 19 18 3175 3174 3165 3164 3179 3158 3170 3165 3164 3180 3171 3156 3177 3162 3188 3161 3162 3167 3167 3179 3142 3177 3170 3173 3173 3172 3166 3188 3150 3177 3151 3171 3189 3189 3171 3156 3154 3164 3170 3167 4470 4469 4457 4450 4473 4455 4448 4450 4452 4449 4452 4459 4478 4461 4457 4470 4469 4437 4458 4451 4467 4489 4474 4466 4443 4470 4470 4455 4478 4462 4477 4462 4468 4450 4444 4485 4463 4453 4452 4458 3293 3317 3314 3310 3314 3316 3293 3315 3319 3329 3313 3303 3328 3313 3302 3306 3307 3324 3316 3285 3311 3297 3313 3315 3304 3307 3305 3314 3321 3309 3320 3320 3303 3297 3323 3325 3303 3312 3291 3315
18 29 25 37 35 26 35 30 21 20 14 35 31 3163 3162 3153 3151 3167 3146 3158 3152 3152 3167 3159 3143 3165 3150 3176 3149 3150 3155 3155 3167 3130 3165 3158 3161 3161 3160 3154 3176 3138 3165 3138 3158 3177 3177 3159 3144 3142 3151 3158 3155 4465 4464 4452 4445 4468 4449 4443 4445 4447 4444 4447 4454 4473 4456 4451 4464 4464 4432 4452 4446 4462 4484 4469 4460 4438 4465 4465 4450 4472 4457 4471 4457 4462 4445 4439 4480 4458 4448 4447 4453 3285 3309 3305 3301 3306 3307 3284 3306 3311 3320 3305 3295 3319 3304 3293 3298 3299 3315 3308 3276 3303 3289 3304 3306 3295 3298 3296 3306 3312 3301 3312 3312 3295 3288 3315 3316 3295 3304 3282 3306
17 16 26 30 22 23 15 8 17 9 19 14 3179 3179 3169 3168 3183 3162 3175 3169 3168 3184 3175 3160 3182 3166 3192 3165 3166 3171 3172 3183 3147 3181 3174 3177 3177 3177 3170 3192 3155 3181 3155 3175 3193 3193 3175 3160 3158 3168 3175 3171 4475 4474 4462 4455 4478 4460 4453 4455 4457 4454 4457 4464 4483 4466 4462 4475 4474 4442 4462 4456 4472 4494 4479 4471 4448 4475 4475 4460 4483 4467 4482 4467 4473 4455 4449 4490 4468 4458 4457 4463 3298 3322 3318 3314 3319 3321 3298 3320 3324 3334 3318 3308 3333 3318 3307 3311 3312 3329 3321 3290 3316 3302 3317 3319 3309 3312 3309 3319 3326 3314 3325 3325 3308 3301 3328 3329 3308 3317 3296 3319
5 9 15 10 6 7 10 12 15 11 24 3178 3177 3168 3166 3182 3161 3173 3167 3167 3182 3174 3159 3180 3165 3191 3164 3165 3170 3170 3182 3145 3180 3173 3176 3176 3175 3169 3191 3153 3180 3154 3174 3192 3192 3174 3159 3157 3166 3173 3170 4465 4464 4452 4445 4468 4449 4443 4445 4447 4444 4447 4454 4473 4456 4451 4464 4464 4432 4452 4445 4462 4484 4469 4460 4438 4465 4465 4450 4472 4457 4471 4457 4462 4445 4439 4480 4458 4448 4447 4453 3292 3315 3312 3308 3313 3314 3291 3313 3317 3327 3311 3302 3326 3311 3300 3304 3305 3322 3314 3283 3310 3296 3311 3313 3302 3305 3303 3313 3319 3308 3318 3319 3301 3295 3322 3323 3302 3310 3289 3313
12 15 8 10 10 8 8 11 15 25 3174 3173 3164 3163 3178 3157 3169 3164 3163 3179 3170 3155 3177 3161 3187 3160 3161 3166 3166 3178 3142 3176 3169 3172 3172 3171 3165 3187 3150 3176 3150 3170 3188 3188 3170 3155 3153 3163 3170 3166 4463 4462 4450 4443 4466 4447 4441 4443 4445 4442 4445 4452 4471 4454 4450 4463 4462 4430 4450 4443 4460 4482 4467 4459 4436 4463 4463 4448 4470 4455 4470 4455 4460 4443 4437 4478 4456 4446 4445 4451 3289 3313 3309 3305 3310 3311 3288 3310 3315 3324 3308 3299 3323 3308 3297 3302 3303 3319 3312 3280 3307 3293 3308 3310 3300 3302 3300 3310 3316 3305 3316 3316 3299 3292 3319 3320 3299 3308 3286 3310
13 13 3 13 19 18 23 15 31 3178 3178 3169 3167 3183 3162 3174 3168 3168 3183 3174 3160 3181 3166 3191 3165 3166 3171 3171 3183 3146 3181 3174 3177 3177 3176 3170 3192 3154 3181 3154 3174 3192 3193 3175 3160 3157 3167 3174 3171 4461 4460 4448 4441 4464 4445 4439 4441 4443 4440 4443 4450 4469 4452 4448 4461 4460 4428 4448 4441 4458 4480 4465 4456 4434 4461 4461 4446 4469 4453 4467 4453 4458 4441 4435 4476 4454 4444 4443 4449 3290 3313 3310 3306 3311 3312 3289 3311 3316 3325 3309 3300 3324 3309 3298 3303 3304 3320 3312 3281 3308 3294 3309 3311 3300 3303 3301 3311 3317 3306 3317 3317 3299 3293 3320 3321 3300 3309 3287 3311
9 14 22 22 15 24 26 39 3166 3166 3156 3155 3170 3149 3161 3156 3155 3171 3162 3147 3169 3153 3179 3152 3154 3158 3159 3170 3134 3168 3161 3164 3164 3163 3158 3179 3142 3168 3142 3162 3180 3180 3162 3147 3145 3155 3162 3158 4450 4449 4437 4429 4453 4434 4428 4430 4432 4429 4432 4439 4458 4441 4436 4449 4449 4417 4437 4430 4447 4469 4454 4445 4423 4449 4450 4435 4457 4442 4456 4442 4447 4430 4424 4465 4442 4433 4432 4438 3277 3301 3298 3294 3298 3300 3277 3299 3303 3313 3297 3288 3312 3297 3286 3290 3291 3308 3300 3269 3295 3282 3297 3299 3288 3291 3289 3299 3305 3293 3304 3305 3287 3281 3307 3309 3287 3296 3275 3299
13 17 14 7 15 22 32 3167 3167 3158 3156 3172 3150 3163 3157 3157 3172 3163 3148 3170 3154 3180 3153 3155 3160 3160 3172 3135 3170 3162 3166 3166 3165 3159 3181 3143 3170 3143 3163 3181 3182 3164 3149 3146 3156 3163 3159 4456 4455 4443 4435 4458 4440 4434 4436 4438 4435 4437 4445 4464 4446 4442 4455 4455 4422 4443 4436 4452 4475 4459 4451 4428 4455 4456 4440 4463 4447 4462 4448 4453 4436 4430 4471 4448 4439 4438 4443 3281 3305 3302 3298 3302 3304 3281 3303 3307 3317 3301 3292 3316 3301 3290 3294 3295 3312 3304 3273 3299 3286 3301 3303 3292 3295 3293 3303 3309 3297 3308 3308 3291 3285 3311 3313 3291 3300 3279 3303
10 16 17 21 12 28 3179 3179 3170 3168 3183 3162 3175 3169 3169 3184 3175 3160 3182 3166 3192 3165 3167 3172 3172 3183 3147 3182 3174 3178 3178 3177 3171 3193 3155 3182 3155 3175 3193 3194 3176 3160 3158 3168 3175 3171 4463 4462 4450 4443 4466 4448 4441 4443 4445 4442 4445 4452 4471 4454 4450 4463 4462 4430 4451 4444 4460 4482 4467 4459 4436 4463 4463 4448 4471 4455 4470 4455 4461 4443 4437 4478 4456 4446 4445 4451 3291 3315 3311 3307 3312 3314 3291 3313 3317 3327 3311 3301 3326 3311 3300 3304 3305 3322 3314 3283 3309 3295 3311 3313 3302 3305 3303 3312 3319 3307 3318 3318 3301 3295 3321 3322 3301 3310 3289 3312
9 17 16 6 18 3184 3183 3174 3172 3188 3167 3179 3173 3173 3188 3180 3165 3186 3171 3197 3170 3171 3176 3176 3188 3151 3186 3179 3182 3182 3181 3175 3197 3159 3186 3160 3179 3198 3198 3180 3165 3163 3172 3179 3176 4472 4471 4459 4451 4475 4456 4450 4452 4454 4451 4454 4461 4480 4463 4458 4471 4471 4439 4459 4452 4469 4491 4476 4467 4445 4471 4472 4457 4479 4464 4478 4464 4469 4452 4446 4487 4464 4455 4454 4460 3298 3322 3319 3315 3319 3321 3298 3320 3324 3334 3318 3308 3333 3318 3307 3311 3312 3329 3321 3290 3316 3302 3318 3320 3309 3312 3310 3319 3326 3314 3325 3325 3308 3302 3328 3330 3308 3317 3296 3320
11 7 15 18 3177 3176 3167 3166 3181 3160 3172 3167 3166 3182 3173 3158 3180 3164 3190 3163 3164 3169 3169 3181 3145 3179 3172 3175 3175 3174 3168 3190 3152 3179 3153 3173 3191 3191 3173 3158 3156 3166 3173 3169 4469 4468 4456 4449 4472 4454 4448 4450 4452 4448 4451 4459 4477 4460 4456 4469 4468 4436 4457 4450 4466 4488 4473 4465 4442 4469 4469 4454 4477 4461 4476 4461 4467 4449 4444 4485 4462 4453 4451 4457 3294 3318 3314 3310 3315 3316 3293 3315 3320 3329 3314 3304 3328 3313 3302 3307 3308 3324 3317 3285 3312 3298 3313 3315 3305 3307 3305 3315 3321 3310 3321 3321 3304 3297 3324 3325 3304 3313 3291 3315
9 22 29 3167 3166 3157 3156 3171 3150 3162 3157 3156 3172 3163 3148 3170 3154 3180 3153 3154 3159 3159 3171 3135 3169 3162 3165 3165 3164 3158 3180 3143 3169 3143 3163 3181 3181 3163 3148 3146 3156 3163 3159 4459 4458 4446 4438 4461 4443 4437 4439 4441 4438 4440 4448 4467 4449 4445 4458 4458 4425 4446 4439 4456 4478 4462 4454 4431 4458 4459 4443 4466 4450 4465 4451 4456 4439 4433 4474 4451 4442 4441 4446 3283 3307 3303 3299 3304 3305 3283 3304 3309 3318 3303 3293 3317 3302 3292 3296 3297 3313 3306 3274 3301 3287 3302 3304 3294 3296 3294 3304 3311 3299 3310 3310 3293 3286 3313 3314 3293 3302 3280 3304
21 22 3171 3171 3162 3160 3175 3154 3167 3161 3161 3176 3167 3152 3174 3158 3184 3157 3159 3163 3164 3175 3139 3174 3166 3170 3170 3169 3163 3185 3147 3174 3147 3167 3185 3185 3168 3153 3150 3160 3167 3163 4467 4466 4454 4446 4469 4451 4445 4447 4449 4446 4448 4456 4475 4457 4453 4466 4466 4433 4454 4447 4464 4486 4470 4462 4439 4466 4467 4451 4474 4458 4473 4459 4464 4447 4441 4482 4459 4450 4448 4454 3290 3313 3310 3306 3311 3312 3289 3311 3315 3325 3309 3300 3324 3309 3298 3303 3304 3320 3313 3281 3308 3294 3309 3311 3300 3303 3301 3311 3317 3306 3317 3317 3300 3293 3320 3321 3300 3309 3287 3311
18 3189 3189 3179 3178 3193 3172 3185 3179 3178 3194 3185 3170 3192 3176 3202 3175 3176 3181 3182 3193 3157 3191 3184 3187 3187 3187 3181 3202 3165 3191 3165 3185 3203 3203 3185 3170 3168 3178 3185 3181 4475 4474 4462 4455 4478 4460 4454 4456 4458 4454 4457 4465 4483 4466 4462 4475 4474 4442 4463 4456 4472 4495 4479 4471 4448 4475 4476 4460 4483 4467 4482 4468 4473 4455 4450 4491 4468 4459 4457 4463 3303 3327 3323 3319 3324 3325 3303 3324 3329 3338 3323 3313 3337 3322 3312 3316 3317 3333 3326 3294 3321 3307 3322 3324 3314 3316 3314 3324 3331 3319 3330 3330 3313 3306 3333 3334 3313 3322 3300 3324
3193 3192 3183 3181 3197 3176 3188 3182 3182 3197 3189 3174 3195 3180 3206 3179 3180 3185 3185 3197 3160 3195 3188 3191 3191 3190 3184 3206 3168 3195 3169 3188 3207 3207 3189 3174 3172 3181 3188 3185 4488 4487 4475 4467 4490 4472 4466 4468 4470 4467 4469 4477 4496 4478 4474 4487 4487 4454 4475 4468 4484 4507 4491 4483 4460 4487 4488 4472 4495 4479 4494 4480 4485 4468 4462 4503 4480 4471 4469 4475 3312 3335 3332 3328 3333 3334 3311 3333 3337 3347 3331 3322 3346 3331 3320 3325 3326 3342 3335 3303 3330 3316 3331 3333 3322 3325 3323 3333 3339 3328 3339 3339 3322 3315 3342 3343 3322 3330 3309 3333
12 10 19 14 19 10 23 11 6 16 31 6 17 13 21 33 17 22 17 33 4 10 2 9 8 28 26 29 10 28 21 19 24 4 22 23 14 9 21 2412 2410 2408 2399 2399 2403 2393 2391 2398 2397 2406 2406 2416 2397 2394 2400 2419 2378 2405 2408 2414 2423 2416 2406 2397 2415 2399 2395 2405 2407 2422 2401 2405 2397 2399 2419 2416 2394 2394 2392 1000 1015 1009 1016 1001 990 1006 997 1001 1001 1011 991 1002 997 998 1003 1003 1011 1023 1011 1008 993 1008 996 997 1005 995 1017 994 1002 1001 994 1011 1008 1001 1027 999 1003 1002 1008
17 12 5 26 21 13 16 16 5 23 7 13 17 14 22 8 11 7 32 15 6 10 3 19 17 17 24 3 24 9 29 16 12 30 21 23 6 11 2424 2422 2419 2411 2411 2414 2405 2403 2410 2408 2418 2418 2427 2409 2406 2411 2430 2390 2417 2419 2425 2434 2427 2417 2408 2426 2411 2406 2417 2419 2433 2412 2417 2408 2410 2430 2427 2405 2406 2403 1012 1027 1020 1028 1012 1001 1018 1008 1013 1012 1023 1002 1013 1009 1009 1014 1015 1023 1034 1022 1019 1005 1019 1007 1008 1017 1007 1028 1006 1014 1012 1006 1023 1019 1013 1039 1011 1015 1014 1020
18 21 10 9 23 2 14 18 28 14 13 23 19 33 17 23 23 24 12 12 9 14 9 29 33 23 17 21 23 26 32 6 13 16 6 11 22 2413 2411 2408 2400 2400 2403 2394 2392 2399 2397 2407 2406 2416 2398 2395 2400 2419 2378 2405 2408 2414 2423 2416 2406 2397 2415 2400 2395 2406 2407 2422 2401 2406 2397 2399 2419 2416 2394 2395 2392 997 1013 1006 1014 998 987 1003 994 999 998 1009 988 999 995 995 1000 1000 1009 1020 1008 1005 991 1005 993 994 1003 993 1014 992 1000 998 992 1009 1005 999 1025 997 1001 999 1005
16 25 26 5 16 25 7 12 18 6 29 3 15 3 6 15 23 23 10 17 12 25 11 25 13 15 13 8 38 26 17 28 12 24 11 5 2430 2428 2426 2417 2418 2421 2411 2409 2417 2415 2424 2424 2434 2415 2412 2418 2437 2396 2423 2426 2432 2441 2434 2424 2415 2433 2417 2413 2423 2425 2440 2419 2423 2415 2417 2437 2434 2412 2412 2410 1015 1031 1024 1032 1016 1005 1021 1012 1016 1016 1027 1006 1017 1013 1013 1018 1018 1027 1038 1026 1023 1009 1023 1011 1012 1021 1010 1032 1010 1017 1016 1010 1026 1023 1017 1042 1014 1018 1017 1023
30 24 16 20 16 8 26 8 17 15 18 24 12 14 3 37 16 10 13 7 21 18 13 29 4 28 11 28 12 15 33 25 26 10 14 2424 2422 2419 2411 2411 2414 2405 2403 2410 2408 2418 2418 2427 2409 2406 2411 2430 2390 2417 2419 2426 2434 2427 2417 2408 2426 2411 2406 2417 2419 2433 2412 2417 2409 2410 2430 2427 2405 2406 2404 1013 1028 1022 1029 1014 1003 1019 1010 1014 1014 1024 1004 1015 1010 1011 1016 1016 1024 1036 1024 1021 1007 1021 1009 1010 1019 1008 1030 1007 1015 1014 1007 1024 1021 1014 1040 1012 1016 1015 1021
12 30 11 22 27 33 24 20 31 25 40 26 31 33 21 20 21 18 24 15 36 43 25 27 24 32 31 42 16 3 19 6 21 30 2408 2406 2404 2395 2395 2399 2389 2387 2394 2393 2402 2402 2412 2393 2390 2396 2414 2374 2401 2404 2410 2419 2412 2402 2392 2411 2395 2390 2401 2403 2418 2397 2401 2393 2394 2415 2412 2390 2390 2388 990 1006 999 1007 992 981 996 988 992 992 1002 981 993 988 988 993 994 1002 1013 1001 998 984 999 987 987 996 986 1007 985 993 992 985 1002 998 992 1018 990 994 992 999
31 11 11 25 37 16 21 20 27 41 25 30 27 31 10 18 11 19 3 36 36 31 20 30 29 19 34 9 14 25 7 17 29 2404 2402 2400 2391 2392 2395 2385 2384 2391 2389 2399 2398 2408 2389 2387 2392 2411 2370 2397 2400 2406 2415 2408 2398 2389 2407 2391 2387 2398 2399 2414 2393 2397 2389 2391 2411 2408 2386 2387 2384 990 1006 999 1007 991 980 996 987 992 991 1002 981 992 988 988 993 994 1002 1013 1001 998 984 998 986 987 996 986 1007 985 993 991 985 1002 998 992 1018 990 994 992 999
21 28 8 10 20 11 31 6 10 6 3 15 27 26 14 21 14 29 6 24 15 17 16 6 42 24 22 33 16 29 15 3 2435 2433 2431 2422 2422 2426 2416 2414 2421 2419 2429 2429 2438 2420 2417 2422 2441 2401 2428 2431 2437 2446 2438 2428 2419 2438 2422 2417 2428 2430 2445 2424 2428 2420 2421 2441 2438 2417 2417 2415 1020 1036 1029 1037 1021 1010 1026 1017 1021 1021 1032 1011 1022 1018 1018 1023 1023 1032 1043 1031 1028 1014 1028 1016 1017 1026 1016 1037 1015 1023 1021 1015 1031 1028 1022 1047 1019 1023 1022 1028
16 17 26 14 11 24 16 31 15 20 22 22 13 10 9 13 11 26 32 20 16 19 21 28 31 7 14 14 8 10 20 2415 2413 2411 2402 2402 2406 2396 2394 2401 2399 2409 2409 2419 2400 2397 2402 2421 2381 2408 2411 2417 2426 2418 2409 2399 2418 2402 2397 2408 2410 2425 2404 2408 2400 2401 2422 2419 2397 2397 2395 999 1015 1008 1016 1001 990 1005 997 1001 1001 1011 990 1002 997 997 1002 1003 1011 1022 1010 1007 993 1007 995 996 1005 995 1016 994 1002 1001 994 1011 1007 1001 1027 999 1003 1001 1008
21 36 9 22 9 27 38 22 26 20 38 2 15 8 14 8 32 27 34 13 33 25 13 24 9 25 29 17 14 26 2408 2406 2403 2395 2395 2399 2389 2387 2394 2392 2402 2402 2411 2393 2390 2395 2414 2374 2401 2404 2410 2419 2411 2401 2392 2410 2395 2390 2401 2403 2417 2396 2401 2393 2394 2414 2411 2389 2390 2388 997 1012 1005 1013 998 986 1003 994 998 997 1008 987 998 994 994 999 1000 1008 1019 1008 1004 990 1005 992 993 1002 992 1013 991 999 997 991 1008 1004 998 1024 996 1000 999 1005
18 12 10 22 10 17 4 6 8 30 19 7 14 7 23 12 19 20 8 20 5 34 19 15 30 18 25 8 6 2428 2426 2424 2415 2415 2419 2409 2407 2414 2413 2422 2422 2432 2413 2410 2415 2434 2394 2421 2424 2430 2439 2431 2422 2412 2431 2415 2410 2421 2423 2438 2417 2421 2413 2414 2435 2432 2410 2410 2408 1015 1030 1024 1031 1016 1005 1021 1012 1016 1016 1026 1006 1017 1013 1013 1018 1018 1026 1038 1026 1023 1009 1023 1011 1012 1021 1010 1032 1009 1017 1016 1010 1026 1023 1016 1042 1014 1018 1017 1023
29 15 40 10 9 15 12 24 23 34 21 29 23 36 11 32 11 26 12 15 50 34 29 36 15 33 22 12 2441 2439 2436 2428 2428 2431 2422 2420 2427 2425 2435 2435 2444 2426 2423 2428 2447 2407 2434 2436 2443 2452 2444 2434 2425 2443 2428 2423 2434 2436 2450 2429 2434 2426 2427 2447 2444 2422 2423 2421 1024 1039 1033 1040 1025 1014 1030 1021 1025 1025 1035 1015 1026 1021 1022 1027 1027 1035 1047 1034 1032 1017 1032 1020 1021 1029 1019 1041 1018 1026 1025 1019 1035 1031 1025 1051 1023 1027 1026 1032
17 11 20 30 15 18 12 35 8 8 6 6 13 24 20 29 5 28 17 21 18 8 27 24 19 7 18 2416 2414 2412 2403 2403 2407 2397 2395 2403 2401 2411 2410 2420 2401 2398 2404 2423 2382 2409 2412 2418 2427 2420 2410 2401 2419 2403 2399 2409 2411 2426 2405 2409 2401 2403 2423 2420 2398 2398 2396 1005 1020 1014 1021 1006 995 1011 1002 1006 1006 1016 996 1007 1002 1003 1008 1008 1016 1028 1016 1013 999 1013 1001 1002 1011 1000 1022 999 1007 1006 999 1016 1013 1006 1032 1004 1008 1007 1013
28 6 20 7 11 18 20 20 8 14 11 21 17 29 12 15 12 13 36 28 14 23 8 19 9 10 2426 2424 2421 2413 2413 2416 2407 2405 2412 2410 2420 2420 2429 2411 2408 2413 2432 2392 2419 2421 2428 2437 2429 2419 2410 2428 2413 2408 2419 2421 2435 2414 2419 2410 2412 2432 2429 2407 2408 2406 1010 1025 1019 1026 1011 1000 1016 1007 1011 1011 1021 1001 1012 1008 1008 1013 1013 1021 1033 1021 1018 1004 1018 1006 1007 1016 1005 1027 1005 1012 1011 1005 1021 1018 1011 1037 1009 1013 1012 1018
31 39 25 28 18 46 11 19 15 17 17 34 21 40 14 39 26 14 19 17 34 35 26 19 28 2409 2407 2405 2396 2396 2400 2391 2389 2396 2394 2404 2403 2413 2394 2391 2397 2416 2375 2402 2405 2411 2420 2413 2403 2394 2412 2396 2392 2402 2404 2419 2398 2402 2394 2396 2416 2413 2391 2392 2389 1001 1016 1009 1017 1002 991 1007 998 1002 1001 1012 992 1002 998 999 1004 1004 1012 1023 1012 1008 995 1009 997 998 1007 996 1018 995 1003 1002 995 1012 1009 1002 1028 1000 1004 1003 1009
15 6 8 18 21 25 12 19 14 26 12 28 10 17 10 11 40 28 19 28 10 24 13 7 2431 2429 2427 2418 2419 2422 2412 2410 2418 2416 2425 2425 2435 2416 2413 2419 2438 2397 2424 2427 2433 2442 2435 2425 2415 2434 2418 2414 2424 2426 2441 2420 2424 2416 2418 2438 2435 2413 2413 2411 1015 1031 1024 1032 1017 1006 1021 1013 1017 1017 1027 1006 1018 1013 1013 1018 1019 1027 1038 1026 1023 1009 1023 1011 1012 1021 1011 1032 1010 1018 1017 1010 1027 1023 1017 1043 1015 1019 1017 1024
16 12 22 32 36 24 31 24 39 6 27 19 26 20 13 51 29 32 42 23 39 24 12 2445 2443 2441 2432 2432 2436 2426 2424 2431 2429 2439 2439 2448 2430 2427 2432 2451 2411 2438 2441 2447 2456 2448 2439 2429 2448 2432 2427 2438 2440 2455 2434 2438 2430 2431 2451 2449 2427 2427 2425 1030 1045 1039 1046 1031 1020 1036 1027 1031 1031 1041 1021 1032 1028 1028 1033 1033 1041 1053 1041 1038 1024 1038 1026 1027 1036 1025 1047 1025 1032 1031 1025 1041 1038 1031 1057 1029 1033 1032 1038
5 12 26 20 8 15 9 23 11 22 17 11 16 6 36 22 16 29 14 24 8 4 2429 2427 2425 2416 2416 2420 2410 2408 2415 2413 2423 2423 2432 2414 2411 2416 2435 2395 2422 2425 2431 2440 2432 2423 2413 2432 2416 2411 2422 2424 2439 2418 2422 2414 2415 2435 2433 2411 2411 2409 1015 1030 1024 1031 1016 1005 1021 1012 1016 1016 1026 1005 1017 1012 1013 1018 1018 1026 1038 1026 1022 1008 1023 1011 1012 1020 1010 1032 1009 1017 1016 1009 1026 1022 1016 1042 1014 1018 1017 1023
12 29 25 12 20 13 28 6 21 18 14 18 3 40 22 20 34 17 29 13 1 2434 2432 2429 2421 2421 2424 2415 2413 2420 2418 2428 2428 2437 2419 2416 2421 2440 2400 2427 2429 2435 2444 2437 2427 2418 2436 2421 2416 2427 2429 2443 2422 2427 2418 2420 2440 2437 2415 2416 2414 1020 1035 1029 1036 1021 1010 1026 1017 1021 1021 1031 1011 1022 1017 1018 1023 1023 1031 1043 1031 1028 1013 1028 1016 1017 1025 1015 1037 1014 1022 1021 1014 1031 1027 1021 1047 1019 1023 1022 1028
38 19 12 16 9 25 16 11 29 7 28 9 31 10 18 36 26 29 12 12 2427 2425 2423 2414 2414 2418 2408 2406 2413 2412 2421 2421 2431 2412 2409 2414 2433 2393 2420 2423 2429 2438 2431 2421 2411 2430 2414 2409 2420 2422 2437 2416 2420 2412 2414 2434 2431 2409 2409 2407 1017 1032 1025 1033 1017 1006 1023 1013 1017 1017 1028 1007 1018 1014 1014 1019 1020 1028 1039 1028 1024 1010 1024 1012 1013 1022 1012 1033 1011 1019 1017 1011 1028 1024 1017 1043 1016 1020 1019 1024
36 28 31 31 32 32 48 12 35 11 32 50 48 29 22 12 25 28 28 2426 2424 2422 2413 2414 2417 2407 2405 2412 2411 2420 2420 2430 2411 2408 2414 2432 2392 2419 2422 2428 2437 2430 2420 2410 2429 2413 2408 2419 2421 2436 2415 2419 2411 2412 2433 2430 2408 2408 2406 1005 1021 1014 1021 1006 995 1011 1002 1006 1007 1016 996 1008 1003 1003 1008 1008 1017 1028 1015 1013 998 1013 1001 1002 1011 1000 1022 1000 1007 1006 1000 1016 1012 1007 1032 1004 1008 1006 1013
13 6 12 7 31 27 32 12 31 24 16 25 7 23 26 15 12 24 2409 2407 2405 2396 2396 2400 2390 2388 2395 2394 2403 2403 2413 2394 2391 2396 2415 2375 2402 2405 2411 2420 2413 2403 2393 2412 2396 2391 2402 2404 2419 2398 2402 2394 2396 2416 2413 2391 2391 2389 997 1013 1006 1014 998 987 1003 994 998 998 1009 988 999 995 995 1000 1000 1008 1020 1008 1005 991 1005 993 994 1003 993 1014 992 1000 998 992 1009 1005 998 1024 997 1000 999 1005
8 3 16 18 23 21 7 20 12 28 22 8 24 16 18 1 12 2421 2419 2417 2408 2409 2412 2403 2401 2408 2406 2416 2415 2425 2406 2404 2409 2428 2387 2414 2417 2423 2432 2425 2415 2406 2424 2408 2404 2415 2416 2431 2410 2414 2406 2408 2428 2425 2403 2404 2401 1008 1023 1017 1024 1009 998 1014 1005 1009 1009 1019 999 1010 1005 1006 1011 1011 1019 1031 1019 1016 1002 1016 1004 1005 1014 1003 1025 1002 1010 1009 1003 1019 1016 1009 1035 1007 1011 1010 1016
8 9 26 25 27 9 26 19 21 24 2 21 21 14 7 19 2414 2412 2410 2401 2401 2405 2395 2393 2400 2399 2408 2408 2417 2399 2396 2401 2420 2380 2407 2410 2416 2425 2417 2408 2398 2417 2401 2396 2407 2409 2424 2403 2407 2399 2400 2421 2418 2396 2396 2394 1001 1017 1010 1017 1002 991 1007 998 1002 1002 1012 992 1003 999 999 1004 1004 1012 1024 1012 1009 995 1009 997 998 1007 996 1018 995 1003 1002 996 1012 1009 1002 1028 1000 1004 1003 1009
16 19 20 23 4 23 11 27 19 9 27 19 20 3 12 2421 2419 2417 2408 2409 2412 2402 2400 2408 2406 2416 2415 2425 2406 2403 2409 2428 2387 2414 2417 2423 2432 2425 2415 2406 2424 2408 2404 2414 2416 2431 2410 2414 2406 2408 2428 2425 2403 2403 2401 1009 1024 1017 1025 1010 999 1015 1006 1010 1010 1020 999 1011 1006 1007 1012 1012 1020 1032 1020 1016 1002 1017 1005 1006 1014 1004 1026 1003 1011 1010 1003 1020 1016 1010 1036 1008 1012 1011 1017
34 33 31 18 30 28 17 31 8 17 25 9 15 27 2406 2404 2401 2393 2393 2396 2387 2385 2392 2390 2400 2400 2409 2391 2388 2393 2412 2372 2399 2401 2408 2417 2409 2399 2390 2408 2393 2388 2399 2401 2415 2394 2399 2391 2392 2412 2409 2387 2388 2386 992 1008 1001 1009 993 982 998 989 994 993 1004 983 994 990 990 995 996 1004 1015 1003 1000 986 1000 988 989 998 988 1009 987 995 993 987 1004 1000 994 1020 992 996 994 1000
22 19 20 20 8 45 24 27 39 21 35 19 7 2440 2438 2436 2427 2427 2431 2421 2419 2426 2424 2434 2434 2443 2425 2422 2427 2446 2406 2433 2436 2442 2451 2443 2433 2424 2443 2427 2422 2433 2435 2450 2429 2433 2425 2426 2446 2444 2422 2422 2420 1026 1041 1035 1042 1027 1016 1032 1023 1027 1027 1037 1017 1028 1024 1024 1029 1029 1037 1049 1037 1034 1020 1034 1022 1023 1032 1021 1043 1020 1028 1027 1021 1037 1034 1027 1053 1025 1029 1028 1034
38 17 38 18 35 3 28 46 37 39 23 21 2430 2428 2426 2417 2417 2421 2411 2409 2416 2415 2424 2424 2433 2415 2412 2417 2436 2396 2423 2426 2432 2441 2433 2424 2414 2433 2417 2412 2423 2425 2440 2419 2423 2415 2416 2436 2434 2412 2412 2410 1022 1037 1031 1039 1023 1012 1028 1019 1023 1023 1033 1013 1024 1020 1020 1025 1025 1033 1045 1033 1030 1016 1030 1018 1019 1028 1017 1039 1016 1024 1023 1016 1033 1030 1023 1049 1021 1025 1024 1030
27 2 21 48 39 26 27 7 27 21 17 2433 2431 2429 2420 2421 2424 2414 2412 2419 2418 2427 2427 2437 2418 2415 2421 2439 2399 2426 2429 2435 2444 2437 2427 2417 2436 2420 2415 2426 2428 2443 2422 2426 2418 2419 2440 2437 2415 2415 2413 1014 1030 1023 1031 1016 1005 1020 1012 1016 1016 1026 1005 1017 1012 1012 1017 1018 1026 1037 1025 1022 1008 1022 1011 1011 1020 1010 1031 1009 1017 1016 1009 1026 1022 1016 1042 1014 1018 1016 1023
27 12 26 15 11 30 23 22 7 14 2421 2419 2417 2408 2408 2412 2402 2400 2407 2406 2415 2415 2424 2406 2403 2408 2427 2387 2414 2417 2423 2432 2424 2415 2405 2424 2408 2403 2414 2416 2431 2410 2414 2406 2407 2427 2425 2403 2403 2401 1010 1025 1018 1026 1010 999 1016 1006 1011 1010 1021 1000 1011 1007 1007 1012 1013 1021 1032 1021 1017 1003 1017 1005 1006 1015 1005 1026 1004 1012 1010 1004 1021 1017 1011 1037 1009 1013 1012 1018
21 46 39 24 25 5 25 21 17 2432 2430 2427 2418 2419 2422 2413 2411 2418 2416 2426 2425 2435 2417 2414 2419 2438 2397 2424 2427 2433 2443 2435 2425 2416 2434 2419 2414 2425 2426 2441 2420 2425 2416 2418 2438 2435 2413 2414 2412 1013 1028 1022 1029 1014 1003 1019 1010 1014 1014 1024 1004 1015 1011 1011 1016 1016 1024 1036 1023 1021 1006 1021 1009 1010 1019 1008 1030 1008 1015 1014 1008 1024 1020 1014 1040 1012 1016 1015 1021
38 18 20 35 20 29 13 4 2433 2431 2428 2420 2420 2424 2414 2412 2419 2417 2427 2427 2436 2418 2415 2420 2439 2399 2426 2429 2435 2444 2436 2426 2417 2436 2420 2415 2426 2428 2442 2422 2426 2418 2419 2439 2436 2415 2415 2413 1020 1035 1029 1036 1021 1010 1026 1017 1021 1021 1031 1011 1022 1017 1018 1023 1023 1031 1043 1031 1028 1014 1028 1016 1017 1026 1015 1037 1014 1022 1021 1014 1031 1028 1021 1047 1019 1023 1022 1028
32 22 33 41 26 27 39 2396 2394 2392 2383 2383 2387 2377 2375 2382 2381 2390 2390 2399 2381 2378 2383 2402 2362 2389 2392 2398 2407 2399 2390 2380 2399 2383 2378 2389 2391 2406 2385 2389 2381 2383 2402 2400 2378 2378 2376 988 1003 996 1004 988 977 994 984 988 988 999 978 989 985 985 990 990 998 1010 999 995 981 995 983 984 993 983 1004 981 989 988 981 999 995 988 1014 987 990 990 995
26 45 37 37 22 22 2427 2425 2423 2414 2414 2418 2408 2406 2413 2412 2421 2421 2430 2412 2409 2414 2433 2393 2420 2423 2429 2438 2430 2421 2411 2430 2414 2409 2420 2422 2437 2416 2420 2412 2414 2433 2431 2409 2409 2407 1020 1035 1028 1036 1020 1009 1026 1016 1020 1020 1031 1010 1021 1017 1017 1022 1023 1030 1042 1031 1027 1013 1027 1015 1016 1025 1015 1036 1013 1022 1020 1014 1031 1027 1020 1046 1019 1022 1022 1027
19 20 11 7 20 2413 2411 2409 2400 2400 2404 2394 2392 2400 2398 2408 2407 2417 2398 2395 2401 2420 2379 2406 2409 2415 2424 2417 2407 2398 2416 2400 2396 2406 2408 2423 2402 2406 2398 2400 2420 2417 2395 2395 2393 1000 1015 1009 1016 1001 990 1006 997 1001 1001 1011 991 1002 997 998 1003 1003 1011 1023 1011 1008 993 1008 996 997 1006 995 1017 994 1002 1001 994 1011 1008 1001 1027 999 1003 1002 1008
21 8 24 33 2406 2404 2402 2393 2394 2397 2387 2385 2392 2391 2400 2400 2410 2391 2388 2394 2413 2372 2399 2402 2408 2417 2410 2400 2390 2409 2393 2389 2400 2401 2416 2395 2399 2391 2393 2413 2410 2388 2388 2386 988 1004 997 1004 989 978 994 985 989 989 1000 979 990 986 986 991 991 1000 1011 999 996 982 996 984 985 994 983 1005 983 990 989 983 999 996 990 1015 987 991 990 996
20 17 17 2427 2425 2422 2414 2414 2417 2408 2406 2413 2411 2421 2420 2430 2412 2409 2414 2433 2392 2419 2422 2428 2438 2430 2420 2411 2429 2414 2409 2420 2422 2436 2415 2420 2411 2413 2433 2430 2408 2409 2407 1008 1024 1017 1025 1010 999 1014 1006 1010 1010 1020 999 1011 1006 1006 1011 1012 1020 1031 1019 1016 1002 1017 1005 1005 1014 1004 1026 1003 1011 1010 1003 1020 1016 1010 1036 1008 1012 1010 1017
17 28 2407 2405 2403 2394 2395 2398 2388 2386 2394 2392 2401 2401 2411 2392 2389 2395 2414 2373 2400 2403 2409 2418 2411 2401 2391 2410 2394 2390 2400 2402 2417 2396 2400 2392 2394 2414 2411 2389 2389 2387 991 1007 1000 1008 992 981 997 988 993 992 1003 982 994 989 989 994 994 1003 1014 1002 999 985 999 987 988 997 987 1008 986 994 992 986 1003 999 993 1019 991 995 993 999
13 2421 2418 2416 2407 2408 2411 2402 2400 2407 2405 2415 2414 2424 2405 2403 2408 2427 2386 2413 2416 2422 2431 2424 2414 2405 2423 2407 2403 2414 2415 2430 2409 2413 2405 2407 2427 2424 2402 2403 2400 1007 1023 1016 1023 1008 997 1013 1004 1008 1008 1018 998 1009 1005 1005 1010 1010 1018 1030 1018 1015 1001 1015 1003 1004 1013 1002 1024 1002 1009 1008 1002 1018 1015 1008 1034 1006 1010 1009 1015
2433 2431 2429 2420 2420 2424 2414 2412 2419 2418 2427 2427 2437 2418 2415 2420 2439 2399 2426 2429 2435 2444 2437 2427 2417 2436 2420 2415 2426 2428 2443 2422 2426 2418 2419 2440 2437 2415 2415 2413 1019 1035 1028 1035 1020 1009 1025 1016 1020 1020 1030 1010 1021 1017 1017 1022 1022 1030 1042 1030 1027 1013 1027 1015 1016 1025 1014 1036 1014 1021 1020 1014 1030 1027 1020 1046 1018 1022 1021 1027
2 15 21 22 16 22 22 18 21 21 11 9 15 18 18 10 36 13 24 7 20 4 6 28 4 19 18 20 8 10 11 8 20 27 17 15 19 19 20 1490 1467 1473 1470 1479 1487 1486 1482 1476 1472 1472 1492 1472 1482 1487 1481 1481 1467 1462 1486 1475 1493 1474 1483 1487 1479 1488 1467 1481 1480 1476 1481 1477 1483 1475 1454 1486 1478 1490 1473
15 20 20 15 21 20 17 20 21 11 9 13 16 16 12 35 13 25 8 20 6 4 27 6 17 16 18 8 12 9 6 19 26 17 16 17 18 18 1488 1465 1472 1468 1477 1485 1484 1480 1475 1470 1470 1490 1470 1480 1485 1479 1479 1465 1460 1484 1473 1491 1473 1481 1485 1477 1486 1465 1479 1478 1474 1479 1475 1481 1473 1452 1484 1476 1488 1472
9 33 5 15 18 10 11 6 5 24 20 19 28 12 30 4 10 10 34 18 15 14 13 30 17 33 8 19 16 18 11 13 31 8 17 15 24 1483 1460 1466 1463 1472 1480 1478 1475 1470 1465 1465 1485 1465 1475 1480 1474 1474 1460 1455 1479 1468 1486 1467 1476 1480 1472 1481 1460 1474 1473 1469 1474 1470 1475 1468 1447 1478 1471 1483 1466
34 5 7 12 5 3 9 10 29 19 16 29 21 21 8 12 18 40 24 17 8 20 30 13 35 12 27 16 21 4 7 37 17 12 10 21 1474 1451 1458 1454 1463 1471 1470 1466 1461 1456 1456 1476 1456 1466 1471 1466 1465 1451 1446 1470 1459 1477 1459 1467 1471 1463 1472 1451 1465 1465 1460 1465 1461 1467 1459 1439 1470 1462 1474 1458
31 30 26 29 32 39 28 19 15 19 5 32 37 29 42 28 24 23 19 41 26 4 22 6 26 29 17 15 31 41 20 36 23 26 16 1481 1458 1464 1461 1470 1477 1477 1472 1467 1463 1463 1483 1463 1473 1478 1472 1472 1458 1453 1478 1466 1484 1465 1473 1478 1470 1479 1458 1471 1471 1467 1472 1468 1474 1465 1445 1476 1469 1481 1464
10 13 5 6 8 5 24 17 15 26 16 25 3 12 13 36 20 13 12 15 27 13 31 8 22 13 17 6 11 32 13 12 10 20 1478 1455 1462 1458 1467 1475 1474 1470 1465 1461 1460 1480 1460 1471 1476 1470 1469 1455 1450 1474 1464 1481 1463 1471 1475 1467 1476 1455 1469 1469 1465 1469 1465 1471 1463 1443 1474 1467 1478 1462
5 5 4 16 13 30 15 11 25 26 15 12 19 21 41 26 17 12 23 26 8 32 15 31 14 19 4 13 37 23 7 4 15 1469 1446 1453 1449 1458 1466 1465 1461 1456 1451 1451 1471 1451 1461 1466 1461 1460 1446 1441 1465 1454 1472 1454 1462 1466 1458 1467 1446 1460 1460 1455 1460 1456 1462 1454 1434 1465 1457 1469 1453
9 9 20 15 28 11 7 21 27 14 14 24 23 39 26 16 17 24 22 5 29 16 31 12 17 8 18 35 26 3 3 10 1468 1445 1452 1448 1457 1465 1464 1460 1455 1450 1450 1470 1450 1460 1465 1460 1459 1445 1440 1464 1453 1471 1453 1461 1465 1457 1466 1445 1459 1459 1454 1459 1455 1461 1453 1433 1464 1456 1468 1452
3 12 8 26 14 11 24 20 20 7 16 16 37 22 14 12 18 25 9 30 10 26 12 17 2 12 33 18 8 6 16 1474 1451 1458 1454 1463 1471 1470 1466 1461 1457 1456 1476 1456 1467 1471 1466 1465 1451 1446 1470 1460 1477 1459 1467 1471 1463 1472 1451 1465 1465 1460 1465 1461 1467 1459 1439 1470 1463 1474 1458
12 11 29 17 14 27 23 19 9 15 19 40 25 17 9 21 28 11 33 13 28 15 20 1 9 37 19 10 7 18 1472 1449 1456 1452 1461 1469 1468 1464 1459 1454 1454 1474 1454 1464 1469 1463 1463 1449 1444 1468 1457 1475 1457 1465 1469 1461 1470 1449 1463 1462 1458 1463 1459 1465 1457 1436 1468 1460 1472 1456
11 30 25 23 34 17 29 10 4 16 41 24 21 10 19 35 21 39 14 25 22 24 12 8 38 11 20 18 28 1480 1457 1464 1460 1469 1477 1476 1472 1467 1463 1462 1482 1462 1473 1478 1472 1471 1457 1452 1476 1466 1483 1465 1473 1477 1469 1478 1457 1471 1471 1467 1472 1467 1473 1465 1445 1476 1469 1480 1464
20 15 15 23 12 28 2 15 8 31 15 9 17 11 24 13 28 3 18 11 13 10 16 28 11 13 12 19 1482 1459 1466 1462 1471 1479 1478 1474 1469 1464 1464 1484 1464 1474 1479 1474 1473 1459 1454 1478 1467 1485 1467 1475 1479 1471 1480 1459 1473 1473 1468 1473 1469 1475 1467 1447 1478 1470 1482 1466
19 23 17 16 43 22 33 14 11 6 13 37 11 18 24 15 17 11 17 11 28 35 8 22 25 26 24 1495 1472 1478 1475 1484 1491 1491 1487 1481 1477 1477 1497 1477 1487 1492 1486 1486 1472 1467 1491 1480 1498 1479 1488 1492 1484 1493 1472 1486 1485 1481 1486 1482 1488 1479 1459 1491 1483 1495 1478
4 10 24 24 16 29 19 29 19 9 26 19 12 7 18 14 25 4 8 16 26 25 25 8 10 5 1476 1452 1459 1455 1465 1472 1471 1467 1462 1458 1457 1478 1458 1468 1473 1467 1466 1452 1447 1472 1461 1478 1460 1468 1473 1465 1474 1453 1466 1466 1462 1467 1462 1468 1460 1440 1471 1464 1476 1459
14 25 20 15 27 21 33 22 12 22 21 16 3 22 14 28 7 12 13 23 29 26 4 7 5 1472 1449 1456 1452 1461 1469 1468 1464 1459 1454 1454 1474 1454 1464 1469 1464 1463 1449 1444 1469 1458 1475 1457 1465 1469 1461 1470 1449 1463 1463 1458 1463 1459 1465 1457 1437 1468 1461 1472 1456
28 33 24 37 24 24 19 14 36 22 1 17 8 21 26 12 10 26 36 19 32 19 21 12 1480 1457 1464 1460 1469 1476 1476 1472 1466 1462 1462 1482 1462 1472 1477 1471 1471 1457 1452 1477 1465 1483 1465 1473 1477 1469 1478 1457 1471 1470 1466 1471 1467 1473 1464 1444 1476 1468 1480 1463
41 14 19 5 25 10 15 27 6 29 24 29 12 8 20 18 22 25 23 7 25 24 29 1494 1471 1478 1474 1484 1491 1490 1486 1481 1477 1476 1496 1477 1487 1492 1486 1485 1471 1466 1491 1480 1497 1479 1487 1492 1484 1493 1472 1485 1485 1481 1486 1481 1487 1479 1459 1490 1483 1494 1478
27 32 36 53 40 30 21 38 34 19 41 30 45 26 32 19 23 49 38 17 17 21 1454 1431 1438 1434 1443 1451 1450 1446 1441 1436 1436 1456 1436 1446 1451 1445 1445 1431 1426 1450 1439 1457 1439 1447 1451 1443 1452 1431 1445 1444 1440 1445 1441 1447 1439 1418 1450 1442 1454 1438
13 10 33 17 11 15 12 26 13 29 5 20 12 15 8 14 30 11 13 11 20 1481 1458 1464 1461 1470 1478 1476 1473 1467 1463 1463 1483 1463 1473 1478 1472 1472 1458 1453 1477 1466 1483 1465 1474 1478 1470 1479 1458 1472 1471 1467 1472 1468 1473 1466 1445 1476 1469 1481 1464
19 43 27 24 11 22 39 24 42 17 27 25 28 15 9 41 12 23 21 32 1481 1458 1465 1461 1470 1478 1477 1473 1468 1464 1463 1483 1463 1473 1478 1473 1472 1458 1453 1477 1466 1484 1466 1474 1478 1470 1479 1458 1472 1472 1467 1472 1468 1474 1466 1446 1477 1469 1481 1465
25 9 11 24 3 25 20 26 7 10 15 14 18 23 22 8 20 20 24 1490 1467 1474 1470 1479 1487 1486 1482 1477 1473 1472 1492 1472 1483 1488 1482 1481 1467 1462 1487 1476 1493 1475 1483 1488 1480 1488 1467 1481 1481 1477 1482 1477 1483 1475 1455 1486 1479 1490 1474
16 24 48 21 24 35 18 28 17 27 22 39 46 4 32 36 37 33 1504 1480 1487 1484 1493 1500 1500 1495 1490 1486 1486 1506 1485 1496 1501 1495 1494 1480 1476 1500 1489 1506 1488 1496 1501 1493 1502 1481 1494 1494 1490 1495 1491 1496 1488 1468 1499 1492 1504 1487
10 32 5 21 22 19 12 7 15 11 24 30 14 17 23 23 24 1494 1470 1477 1473 1483 1490 1489 1485 1480 1476 1475 1496 1476 1486 1491 1485 1484 1470 1465 1490 1479 1496 1478 1486 1491 1483 1492 1471 1484 1484 1480 1485 1480 1486 1478 1458 1489 1482 1494 1477
25 10 15 12 18 7 16 5 4 16 24 20 18 13 14 14 1484 1460 1467 1463 1473 1480 1479 1475 1470 1466 1465 1486 1466 1476 1481 1475 1474 1460 1455 1480 1469 1486 1468 1476 1481 1473 1482 1461 1474 1474 1470 1475 1470 1476 1468 1448 1479 1472 1483 1467
27 37 20 42 20 34 24 28 10 2 44 21 18 16 27 1470 1447 1454 1450 1459 1467 1466 1462 1457 1453 1452 1472 1452 1462 1467 1461 1461 1447 1442 1466 1455 1473 1455 1463 1467 1459 1468 1447 1461 1460 1456 1461 1457 1463 1455 1434 1466 1458 1470 1454
24 20 24 8 7 15 12 20 26 19 11 21 21 24 1492 1469 1475 1472 1481 1489 1488 1484 1478 1474 1474 1494 1474 1484 1489 1483 1483 1469 1464 1488 1477 1495 1476 1485 1489 1481 1490 1469 1483 1482 1478 1483 1479 1485 1477 1456 1487 1480 1492 1475
18 7 22 27 14 12 27 37 20 33 20 22 13 1480 1457 1463 1460 1469 1476 1476 1472 1466 1462 1462 1482 1462 1472 1477 1471 1471 1457 1452 1477 1465 1483 1464 1472 1477 1469 1478 1457 1470 1470 1466 1471 1467 1473 1464 1444 1475 1468 1480 1463
24 13 27 7 13 10 20 31 24 2 4 7 1472 1449 1455 1452 1461 1468 1468 1464 1458 1454 1454 1474 1454 1464 1469 1463 1463 1449 1444 1468 1457 1475 1456 1465 1469 1461 1470 1449 1463 1462 1458 1463 1459 1465 1457 1436 1467 1460 1472 1455
25 25 18 14 32 42 14 35 26 28 20 1487 1463 1470 1467 1476 1483 1483 1478 1473 1469 1469 1489 1468 1479 1484 1478 1477 1463 1459 1483 1472 1489 1471 1479 1484 1476 1485 1464 1477 1477 1473 1478 1474 1480 1471 1451 1482 1475 1487 1470
16 9 11 12 19 25 12 13 13 18 1484 1460 1467 1463 1473 1480 1479 1475 1470 1466 1465 1486 1466 1476 1481 1475 1474 1460 1455 1480 1469 1486 1468 1476 1481 1473 1482 1461 1475 1474 1470 1475 1470 1476 1468 1448 1479 1472 1483 1467
21 17 28 32 16 15 28 28 30 1499 1476 1483 1479 1488 1496 1495 1491 1486 1482 1481 1501 1481 1491 1497 1491 1490 1476 1471 1496 1485 1502 1484 1492 1496 1488 1497 1476 1490 1490 1485 1490 1486 1492 1484 1464 1495 1488 1499 1483
5 14 24 23 21 9 10 9 1479 1456 1462 1459 1468 1475 1475 1471 1465 1461 1461 1481 1461 1471 1476 1470 1470 1456 1451 1475 1464 1482 1463 1472 1476 1468 1477 1456 1470 1469 1465 1470 1466 1472 1464 1443 1475 1467 1479 1462
19 28 18 21 14 16 13 1484 1460 1467 1464 1473 1480 1479 1475 1470 1466 1466 1486 1466 1476 1481 1475 1474 1460 1455 1480 1469 1486 1468 1476 1481 1473 1482 1461 1474 1474 1470 1475 1470 1476 1468 1448 1479 1472 1484 1467
10 36 19 9 6 17 1472 1449 1456 1452 1462 1469 1468 1464 1459 1455 1454 1474 1455 1465 1470 1464 1463 1449 1444 1469 1458 1475 1457 1465 1470 1462 1470 1449 1463 1463 1459 1464 1459 1465 1457 1437 1468 1461 1472 1456
43 19 19 16 27 1472 1449 1456 1452 1461 1469 1468 1464 1459 1455 1454 1474 1454 1465 1469 1464 1463 1449 1444 1468 1457 1475 1457 1465 1469 1461 1470 1449 1463 1463 1458 1463 1459 1465 1457 1437 1468 1461 1472 1456
30 32 33 29 1499 1476 1483 1479 1488 1496 1495 1491 1486 1481 1481 1501 1481 1492 1497 1491 1490 1476 1471 1496 1485 1502 1484 1492 1496 1488 1497 1476 1490 1490 1485 1490 1486 1492 1484 1464 1495 1488 1499 1483
24 23 30 1491 1467 1474 1470 1480 1487 1486 1483 1477 1473 1472 1493 1473 1483 1488 1482 1481 1468 1462 1487 1476 1493 1475 1483 1488 1480 1489 1468 1482 1481 1477 1482 1477 1483 1475 1455 1486 1479 1490 1474
2 9 1471 1448 1455 1451 1460 1468 1467 1463 1458 1453 1453 1473 1453 1463 1468 1462 1462 1448 1443 1467 1456 1474 1456 1464 1468 1460 1469 1448 1462 1461 1457 1462 1458 1464 1456 1435 1467 1459 1471 1455
11 1471 1448 1454 1451 1460 1468 1467 1463 1458 1453 1453 1473 1453 1463 1468 1462 1462 1448 1443 1467 1456 1474 1455 1464 1468 1460 1469 1448 1462 1461 1457 1462 1458 1464 1456 1435 1467 1459 1471 1454
1471 1448 1454 1451 1460 1467 1467 1463 1457 1453 1453 1473 1453 1463 1468 1462 1462 1448 1443 1467 1456 1474 1455 1463 1468 1460 1469 1448 1462 1461 1457 1462 1458 1464 1455 1435 1466 1459 1471 1454
26 21 20 22 28 6 23 27 37 21 16 35 21 10 13 14 31 29 16 18 9 20 24 13 14 14 24 31 16 28 30 13 8 31 37 11 19 4 21
7 8 15 26 24 19 16 22 5 26 20 18 21 15 14 9 8 33 9 26 8 20 20 13 21 4 24 14 16 23 14 21 18 12 19 12 27 7
10 8 20 21 13 11 20 3 19 18 12 14 8 7 10 14 31 2 19 1 14 14 7 15 8 19 7 12 18 12 17 15 19 12 6 23 1
18 30 18 22 21 29 7 26 27 21 19 14 13 17 8 25 10 24 10 23 20 11 21 5 29 15 22 28 7 14 24 16 17 15 21 11
12 24 4 5 15 11 13 14 3 12 9 8 12 22 35 8 17 8 5 10 10 10 17 11 6 6 10 18 21 9 26 11 4 25 7
33 8 11 15 23 13 15 9 18 19 18 21 34 44 20 21 20 7 16 21 14 29 6 16 11 6 29 31 12 37 18 15 32 19
27 29 39 20 22 38 25 14 15 16 31 26 11 19 15 20 28 17 15 19 22 35 19 30 34 11 4 33 34 14 21 4 22
5 14 16 12 13 2 14 12 12 15 27 38 13 17 12 1 11 14 10 21 8 9 6 7 22 24 9 30 13 8 27 12
10 14 17 9 7 17 14 13 10 24 40 12 22 11 6 15 15 15 18 8 11 1 7 22 26 4 26 16 8 30 10
22 26 2 16 27 24 23 13 30 50 22 31 20 14 25 25 24 26 9 21 9 9 32 36 6 29 26 18 40 19
21 21 14 15 10 9 11 11 29 4 21 4 17 15 7 17 5 22 9 15 21 10 16 17 17 14 8 23 4
25 10 8 12 12 25 32 32 17 8 18 11 6 15 5 26 18 12 18 17 21 21 21 38 9 14 20 19
15 26 23 22 12 28 48 20 30 19 13 24 23 23 24 9 19 8 9 30 35 4 27 25 17 39 17
11 10 9 15 26 36 11 15 11 3 9 12 8 20 10 7 7 9 20 22 10 30 11 6 25 11
6 7 23 26 25 12 5 13 14 3 8 4 20 21 8 18 20 14 13 22 33 2 11 14 14
1 18 20 26 6 11 7 13 6 3 8 15 20 3 15 19 10 12 18 27 4 6 16 9
17 20 27 5 12 6 12 7 3 8 14 19 3 14 18 10 13 18 26 5 5 17 8
16 40 12 28 11 16 22 17 22 13 17 15 10 17 21 27 10 16 21 13 33 9
32 15 31 15 28 26 18 28 6 31 21 24 31 15 22 26 9 24 20 29 15
29 25 30 38 28 25 29 30 46 29 41 45 19 14 44 40 25 32 12 32
17 1 14 12 5 13 9 19 6 13 19 10 15 16 21 10 5 21 3
18 17 7 14 7 26 24 13 23 24 18 15 26 38 7 16 13 20
13 13 6 14 9 19 6 12 18 11 17 15 20 11 5 22 2
11 15 10 22 7 10 7 6 23 25 9 31 13 9 27 13
9 2 21 19 7 16 18 15 15 19 33 3 9 16 14
10 12 21 5 16 21 8 11 19 25 7 7 16 8
22 17 8 16 17 17 17 19 34 5 10 18 14
26 15 19 26 12 18 21 13 19 14 25 9
17 7 1 29 32 7 33 20 15 35 18
12 16 13 16 15 26 6 3 19 7
7 23 27 3 26 17 9 31 11
28 31 7 33 20 14 34 17
7 26 24 13 14 14 13
31 30 13 18 7 19
27 20 12 34 13
31 25 38 20
9 14 13
22 5
24

EOF
