NAME: clustered_150_s0
TYPE: TSP
DIMENSION: 150
EDGE_WEIGHT_TYPE: EXPLICIT
EDGE_WEIGHT_FORMAT: UPPER_ROW
EDGE_WEIGHT_SECTION
12 11 19 13 30 21 13 10 15 13 3 17 11 17 9 5 13 14 24 10 6 20 17 13 8 20 6 20 17 6284 6281 6272 6291 6276 6266 6299 6298 6283 6286 6302 6290 6303 6299 6288 6291 6284 6293 6289 6284 6274 6297 6310 6294 6290 6278 6279 6287 6286 6281 2529 2540 2533 2545 2542 2555 2518 2546 2547 2547 2525 2534 2541 2536 2546 2547 2536 2549 2539 2562 2547 2558 2554 2552 2550 2527 2525 2543 2550 2538 963 984 956 951 974 960 971 966 961 971 954 943 962 959 966 943 978 961 954 957 973 978 942 979 980 990 957 961 950 944 2592 2589 2602 2588 2606 2583 2582 2597 2586 2576 2615 2575 2585 2585 2596 2590 2585 2576 2576 2593 2572 2601 2590 2592 2591 2603 2563 2592 2585 2594
19 16 3 19 13 7 12 11 1 15 13 2 7 4 8 5 17 14 19 10 26 25 18 6 8 10 12 15 6273 6270 6260 6280 6265 6254 6287 6286 6272 6275 6291 6278 6292 6287 6277 6280 6272 6281 6277 6273 6263 6286 6298 6282 6278 6267 6268 6275 6274 6269 2541 2552 2545 2557 2554 2567 2530 2558 2559 2559 2537 2546 2553 2548 2558 2559 2548 2561 2551 2574 2559 2570 2566 2564 2562 2539 2537 2555 2562 2550 958 979 951 945 969 955 966 961 956 966 949 938 957 953 961 938 973 955 949 952 968 973 937 974 975 985 952 955 945 939 2596 2593 2607 2593 2610 2587 2586 2601 2590 2580 2619 2580 2590 2589 2600 2595 2590 2580 2581 2598 2577 2605 2594 2596 2595 2607 2567 2596 2589 2599
30 21 38 31 22 9 15 21 9 28 19 26 15 12 22 8 26 2 16 10 6 24 13 27 9 30 27 6286 6283 6274 6293 6278 6267 6300 6299 6285 6288 6304 6291 6305 6300 6290 6293 6286 6295 6290 6286 6276 6299 6311 6295 6291 6280 6281 6288 6287 6282 2524 2535 2528 2540 2537 2550 2513 2541 2541 2542 2520 2529 2535 2531 2541 2542 2531 2544 2534 2556 2542 2553 2549 2547 2545 2522 2520 2538 2545 2533 974 995 966 961 985 971 982 977 971 982 965 954 973 969 977 954 989 971 965 968 983 989 953 990 991 1001 967 971 960 955 2581 2578 2592 2578 2595 2572 2571 2586 2575 2565 2604 2565 2574 2574 2585 2579 2574 2565 2566 2583 2562 2590 2579 2581 2580 2592 2552 2581 2574 2584
13 19 8 10 26 27 16 21 3 15 11 19 19 11 31 28 29 14 39 36 11 20 18 23 8 3 6279 6276 6267 6286 6272 6261 6294 6293 6279 6281 6298 6285 6298 6294 6283 6286 6279 6288 6284 6279 6269 6293 6305 6289 6285 6274 6275 6282 6281 6276 2540 2551 2544 2556 2553 2566 2529 2557 2557 2558 2536 2545 2551 2547 2557 2558 2547 2560 2550 2572 2558 2569 2565 2563 2561 2538 2536 2554 2561 2549 944 965 937 932 955 941 952 947 942 952 935 924 943 940 947 924 959 941 935 938 954 959 923 960 961 971 938 941 931 925 2610 2608 2621 2607 2625 2602 2601 2616 2605 2595 2634 2594 2604 2604 2614 2609 2604 2594 2595 2612 2591 2619 2609 2610 2610 2622 2581 2611 2604 2613
17 10 4 14 14 3 15 10 2 5 7 9 2 20 16 21 10 28 27 16 9 8 12 9 12 6273 6270 6261 6280 6266 6255 6288 6287 6273 6275 6292 6279 6292 6288 6278 6280 6273 6282 6278 6274 6264 6287 6299 6283 6279 6268 6269 6276 6275 6270 2541 2552 2545 2557 2554 2568 2530 2559 2559 2560 2537 2546 2553 2548 2558 2559 2548 2561 2551 2574 2559 2571 2566 2564 2562 2540 2537 2556 2562 2551 955 976 947 942 966 952 963 958 953 963 946 935 954 950 958 935 970 952 946 949 965 970 934 971 972 982 949 952 941 936 2599 2597 2610 2596 2613 2591 2589 2605 2593 2584 2622 2583 2593 2592 2603 2598 2593 2583 2584 2601 2580 2608 2598 2599 2598 2610 2570 2600 2592 2602
12 18 30 27 18 32 17 19 13 23 26 17 35 20 38 26 44 44 29 25 12 29 12 21 6260 6257 6248 6267 6252 6242 6274 6274 6259 6262 6278 6265 6279 6274 6264 6267 6260 6269 6265 6260 6250 6273 6286 6270 6266 6254 6255 6263 6261 6256 2558 2568 2561 2574 2570 2584 2547 2575 2575 2576 2554 2562 2569 2565 2575 2575 2565 2578 2567 2590 2576 2587 2583 2581 2579 2556 2554 2572 2579 2567 943 963 935 930 954 939 950 945 940 951 933 922 941 938 946 922 958 940 933 937 952 957 921 958 960 969 936 940 929 923 2611 2608 2622 2608 2625 2602 2601 2616 2605 2595 2634 2595 2604 2604 2615 2609 2604 2595 2596 2612 2592 2620 2609 2611 2610 2622 2582 2611 2604 2614
8 24 24 12 23 5 12 6 17 18 8 30 22 30 16 38 37 17 19 11 22 1 9 6272 6269 6260 6279 6264 6254 6286 6286 6271 6274 6290 6277 6291 6286 6276 6279 6272 6281 6277 6272 6262 6285 6297 6282 6278 6266 6267 6274 6273 6268 2546 2557 2550 2562 2559 2573 2535 2563 2564 2564 2542 2551 2558 2553 2563 2564 2553 2566 2556 2579 2564 2575 2571 2569 2567 2544 2542 2560 2567 2556 945 966 938 932 956 942 953 948 943 953 936 925 944 940 948 925 960 942 936 939 955 960 924 961 962 972 939 942 932 926 2609 2607 2620 2606 2623 2601 2599 2615 2603 2593 2632 2593 2603 2602 2613 2608 2603 2593 2594 2611 2590 2618 2608 2609 2608 2620 2580 2609 2602 2612
17 17 7 15 6 5 5 9 10 2 22 20 22 8 30 29 13 11 10 14 7 9 6276 6273 6264 6283 6268 6258 6290 6290 6275 6278 6294 6281 6295 6290 6280 6283 6276 6285 6281 6276 6266 6289 6301 6286 6282 6270 6271 6278 6277 6272 2540 2551 2544 2556 2553 2566 2529 2557 2558 2558 2536 2545 2552 2547 2557 2558 2547 2560 2550 2572 2558 2569 2565 2563 2561 2538 2536 2554 2561 2549 953 974 945 940 964 950 960 955 950 961 943 932 952 948 956 933 968 950 944 946 962 967 931 968 970 979 946 950 939 934 2602 2599 2612 2598 2616 2593 2592 2607 2596 2586 2625 2585 2595 2595 2606 2600 2595 2586 2587 2603 2582 2611 2600 2602 2601 2613 2573 2602 2595 2605
6 13 11 23 12 19 8 7 16 6 17 10 14 14 14 23 6 18 3 23 24 6277 6274 6265 6285 6270 6259 6292 6291 6277 6280 6296 6283 6297 6292 6282 6285 6277 6286 6282 6278 6268 6291 6303 6287 6283 6272 6273 6280 6279 6274 2533 2544 2537 2549 2545 2559 2522 2550 2550 2551 2529 2538 2544 2540 2550 2551 2540 2553 2543 2565 2551 2562 2558 2556 2554 2531 2529 2547 2554 2542 970 990 962 957 980 966 977 972 967 977 960 949 968 965 972 949 984 967 960 963 979 984 948 985 986 996 963 967 956 950 2585 2583 2596 2582 2599 2577 2575 2591 2579 2569 2608 2569 2579 2578 2589 2584 2579 2569 2570 2587 2566 2594 2584 2585 2584 2596 2556 2585 2578 2588
11 16 24 12 18 8 11 16 9 11 16 17 17 19 26 7 15 9 23 26 6271 6268 6259 6278 6264 6253 6286 6285 6271 6273 6290 6277 6290 6286 6275 6278 6271 6280 6276 6271 6261 6285 6297 6281 6277 6266 6267 6274 6273 6268 2539 2550 2543 2555 2551 2565 2528 2556 2556 2557 2535 2544 2550 2546 2556 2556 2546 2559 2549 2571 2557 2568 2564 2562 2560 2537 2535 2553 2560 2548 969 989 961 956 980 965 976 971 966 977 959 948 967 964 972 948 984 966 959 962 978 983 947 984 986 995 962 966 955 949 2585 2583 2596 2582 2599 2577 2576 2591 2580 2570 2609 2569 2579 2579 2589 2584 2579 2569 2570 2587 2566 2594 2584 2585 2584 2597 2557 2586 2578 2588
16 13 2 7 5 9 5 18 13 21 11 27 26 19 7 6 11 11 15 6272 6268 6259 6279 6264 6253 6286 6285 6271 6274 6290 6277 6291 6286 6276 6279 6271 6280 6276 6272 6262 6285 6297 6281 6277 6266 6267 6274 6273 6268 2542 2553 2546 2558 2555 2569 2531 2559 2560 2561 2538 2547 2554 2549 2559 2560 2549 2562 2552 2575 2560 2571 2567 2565 2563 2541 2538 2557 2563 2552 958 978 950 945 968 954 965 960 955 965 948 937 956 953 960 937 972 954 948 951 967 972 936 973 974 984 951 955 944 938 2597 2594 2608 2594 2611 2588 2587 2602 2591 2581 2620 2581 2590 2590 2601 2595 2590 2581 2582 2598 2578 2606 2595 2597 2596 2608 2568 2597 2590 2600
19 14 19 12 7 16 14 26 8 8 19 15 14 11 22 8 22 18 6286 6283 6274 6293 6279 6268 6301 6300 6286 6288 6305 6292 6305 6301 6291 6293 6286 6295 6291 6287 6277 6300 6312 6296 6292 6281 6282 6289 6288 6283 2526 2537 2530 2542 2539 2553 2516 2544 2544 2545 2522 2531 2538 2533 2543 2544 2534 2547 2536 2559 2544 2556 2551 2549 2547 2525 2522 2541 2547 2536 965 986 957 952 976 962 972 968 962 973 956 945 964 960 968 945 980 962 956 958 974 979 943 980 982 992 958 962 951 946 2590 2588 2601 2587 2604 2582 2581 2596 2584 2575 2613 2574 2584 2583 2594 2589 2584 2574 2575 2592 2571 2599 2589 2590 2589 2601 2561 2591 2583 2593
12 8 16 16 8 29 25 27 12 36 34 11 17 14 20 5 4 6277 6274 6265 6284 6269 6259 6292 6291 6276 6279 6295 6283 6296 6292 6281 6284 6277 6286 6282 6277 6267 6291 6303 6287 6283 6271 6273 6280 6279 6274 2541 2552 2545 2557 2554 2567 2530 2558 2558 2559 2537 2546 2552 2548 2558 2559 2548 2561 2551 2573 2559 2570 2566 2564 2562 2539 2537 2555 2562 2550 947 968 939 934 958 944 954 950 944 955 937 926 946 942 950 927 962 944 938 940 956 961 925 962 964 973 940 944 933 928 2608 2605 2619 2605 2622 2599 2598 2613 2602 2592 2631 2592 2601 2601 2612 2606 2601 2592 2593 2610 2589 2617 2606 2608 2607 2619 2579 2608 2601 2611
7 4 7 4 18 15 19 9 26 25 16 6 8 10 11 14 6274 6271 6262 6281 6266 6256 6288 6288 6273 6276 6292 6279 6293 6288 6278 6281 6274 6283 6279 6274 6264 6287 6300 6284 6280 6268 6269 6277 6275 6270 2540 2551 2544 2556 2553 2566 2529 2557 2558 2558 2536 2545 2552 2547 2557 2558 2547 2560 2550 2573 2558 2569 2565 2563 2561 2538 2536 2554 2561 2549 958 978 950 945 969 954 965 960 955 965 948 937 956 953 961 937 973 955 948 951 967 972 936 973 975 984 951 955 944 938 2597 2594 2607 2594 2611 2588 2587 2602 2591 2581 2620 2580 2590 2590 2601 2595 2590 2581 2582 2598 2577 2606 2595 2597 2596 2608 2568 2597 2590 2600
11 13 4 25 17 26 13 33 32 17 13 7 17 5 11 6271 6268 6259 6278 6264 6253 6286 6285 6271 6273 6290 6277 6290 6286 6276 6278 6271 6280 6276 6272 6262 6285 6297 6281 6277 6266 6267 6274 6273 6268 2545 2555 2549 2561 2557 2571 2534 2562 2562 2563 2541 2550 2556 2552 2562 2562 2552 2565 2554 2577 2563 2574 2570 2568 2566 2543 2541 2559 2566 2554 951 972 943 938 962 948 958 953 948 959 941 930 950 946 954 931 966 948 942 944 960 965 929 966 968 977 944 948 937 932 2603 2601 2614 2600 2617 2595 2594 2609 2598 2588 2627 2587 2597 2597 2607 2602 2597 2587 2588 2605 2584 2612 2602 2603 2602 2615 2574 2604 2596 2606
4 8 13 15 15 10 22 21 18 2 11 6 16 17 6275 6272 6263 6282 6267 6257 6289 6289 6274 6277 6293 6280 6294 6289 6279 6282 6275 6284 6280 6275 6265 6288 6301 6285 6281 6269 6270 6278 6276 6271 2538 2548 2541 2553 2550 2564 2527 2555 2555 2556 2534 2542 2549 2545 2555 2555 2545 2558 2547 2570 2556 2567 2563 2561 2558 2536 2534 2552 2559 2547 962 983 954 949 973 959 969 965 959 970 952 941 961 957 965 942 977 959 953 956 971 976 940 977 979 989 955 959 948 943 2592 2590 2603 2589 2606 2584 2583 2598 2587 2577 2616 2576 2586 2586 2596 2591 2586 2576 2577 2594 2573 2601 2591 2592 2592 2604 2563 2593 2586 2595
10 13 19 12 7 20 19 16 4 15 4 17 17 6279 6276 6267 6286 6272 6261 6294 6293 6279 6281 6298 6285 6298 6294 6283 6286 6279 6288 6284 6279 6269 6293 6305 6289 6285 6274 6275 6282 6281 6276 2534 2544 2537 2549 2546 2560 2523 2551 2551 2552 2530 2538 2545 2541 2551 2551 2541 2554 2543 2566 2552 2563 2559 2557 2554 2532 2530 2548 2555 2543 963 984 955 950 974 960 970 965 960 971 953 942 962 958 966 943 978 960 954 956 972 977 941 978 980 989 956 960 949 944 2592 2589 2603 2589 2606 2583 2582 2597 2586 2576 2615 2576 2585 2585 2596 2590 2585 2576 2577 2594 2573 2601 2590 2592 2591 2603 2563 2592 2585 2595
22 18 22 9 30 28 15 10 8 14 8 11 6274 6271 6262 6281 6266 6256 6289 6288 6273 6276 6292 6280 6293 6288 6278 6281 6274 6283 6279 6274 6264 6287 6300 6284 6280 6268 6269 6277 6275 6270 2541 2552 2545 2557 2554 2568 2530 2559 2559 2560 2537 2546 2553 2548 2558 2559 2548 2561 2551 2574 2559 2571 2566 2564 2562 2540 2537 2556 2562 2551 954 974 946 941 965 950 961 956 951 961 944 933 952 949 957 933 969 951 944 947 963 968 932 969 971 980 947 951 940 934 2601 2598 2611 2598 2615 2592 2591 2606 2595 2585 2624 2584 2594 2594 2605 2599 2594 2585 2586 2602 2581 2610 2599 2601 2600 2612 2572 2601 2594 2604
20 9 19 8 10 27 11 23 9 29 29 6278 6275 6266 6286 6271 6260 6293 6292 6278 6281 6297 6284 6298 6293 6283 6286 6278 6287 6283 6279 6269 6292 6304 6288 6284 6273 6274 6281 6280 6275 2530 2541 2534 2546 2543 2556 2519 2547 2548 2548 2526 2535 2542 2537 2547 2548 2537 2550 2540 2563 2548 2559 2555 2553 2551 2528 2526 2544 2551 2539 975 996 968 963 986 972 983 978 973 983 966 955 974 970 978 955 990 972 966 969 985 990 954 991 992 1002 969 972 962 956 2579 2577 2590 2576 2593 2571 2570 2585 2573 2564 2602 2563 2573 2572 2583 2578 2573 2563 2564 2581 2560 2588 2578 2579 2578 2590 2550 2580 2572 2582
27 24 28 31 32 15 11 19 22 28 6261 6258 6248 6268 6253 6242 6275 6274 6260 6263 6279 6266 6280 6275 6265 6268 6260 6270 6265 6261 6251 6274 6286 6270 6266 6255 6256 6263 6262 6257 2550 2561 2554 2566 2563 2577 2539 2567 2568 2568 2546 2555 2562 2557 2567 2568 2557 2570 2560 2583 2568 2579 2575 2573 2571 2548 2546 2565 2571 2559 963 984 956 950 974 960 970 965 961 971 953 942 962 958 966 942 978 960 954 957 972 978 942 979 980 989 957 960 950 944 2590 2588 2601 2587 2604 2582 2581 2596 2585 2575 2614 2574 2584 2584 2594 2589 2584 2574 2575 2592 2571 2599 2589 2591 2590 2602 2562 2591 2584 2593
15 12 7 22 14 27 9 29 26 6287 6284 6275 6294 6279 6269 6301 6300 6286 6289 6305 6292 6306 6301 6291 6294 6287 6296 6292 6287 6277 6300 6313 6297 6293 6281 6282 6289 6288 6283 2523 2534 2527 2539 2536 2550 2512 2540 2541 2542 2519 2528 2535 2530 2540 2541 2530 2543 2533 2556 2541 2552 2548 2546 2544 2521 2519 2538 2544 2533 973 994 965 960 984 970 980 976 970 981 964 953 972 968 976 953 988 970 964 967 982 987 952 989 990 1000 966 970 959 954 2582 2579 2593 2579 2596 2574 2572 2588 2576 2566 2605 2566 2576 2575 2586 2581 2576 2566 2567 2584 2563 2591 2581 2582 2581 2593 2553 2582 2575 2585
26 22 9 10 17 10 15 11 6283 6280 6271 6290 6275 6265 6297 6297 6282 6285 6301 6288 6302 6297 6287 6290 6283 6292 6288 6283 6273 6296 6308 6293 6289 6277 6278 6285 6284 6279 2532 2543 2536 2548 2545 2558 2521 2549 2550 2550 2528 2537 2544 2539 2549 2550 2539 2552 2542 2565 2550 2561 2557 2555 2553 2530 2528 2546 2553 2541 958 979 950 945 969 955 965 961 955 965 948 937 957 953 961 938 973 955 949 951 967 972 936 973 975 985 951 955 944 939 2597 2595 2608 2594 2611 2589 2588 2603 2591 2582 2620 2581 2591 2590 2601 2596 2591 2581 2582 2599 2578 2606 2596 2597 2596 2608 2568 2598 2590 2600
7 34 20 32 16 37 37 6282 6279 6270 6289 6274 6264 6297 6296 6281 6284 6300 6288 6301 6296 6286 6289 6282 6291 6287 6282 6272 6295 6308 6292 6288 6276 6277 6285 6283 6279 2524 2535 2528 2540 2537 2551 2513 2541 2542 2543 2520 2529 2536 2531 2541 2542 2532 2544 2534 2557 2542 2553 2549 2547 2545 2522 2520 2539 2545 2534 983 1004 975 970 994 980 990 986 980 991 974 963 982 978 986 963 998 980 974 977 992 997 962 999 1000 1010 976 980 969 964 2572 2569 2582 2568 2586 2563 2562 2577 2566 2556 2595 2555 2565 2565 2576 2570 2565 2556 2556 2573 2552 2581 2570 2572 2571 2583 2543 2572 2565 2575
29 19 32 15 36 33 6288 6285 6276 6295 6281 6270 6303 6302 6288 6290 6307 6294 6307 6303 6293 6295 6288 6297 6293 6289 6278 6302 6314 6298 6294 6283 6284 6291 6290 6285 2520 2531 2524 2535 2532 2546 2509 2537 2537 2538 2516 2524 2531 2527 2537 2537 2527 2540 2529 2552 2538 2549 2545 2543 2541 2518 2516 2534 2541 2529 980 1001 972 967 991 977 988 983 977 988 971 960 979 975 983 960 995 977 971 974 989 994 959 996 997 1007 973 977 966 961 2575 2573 2586 2572 2589 2567 2565 2581 2569 2560 2598 2559 2569 2568 2579 2574 2569 2559 2560 2577 2556 2584 2574 2575 2574 2586 2546 2575 2568 2578
19 23 19 16 8 6288 6285 6276 6295 6280 6270 6303 6302 6287 6290 6306 6294 6307 6303 6292 6295 6288 6297 6293 6288 6278 6302 6314 6298 6294 6282 6284 6291 6290 6285 2530 2540 2533 2545 2542 2556 2519 2547 2547 2548 2526 2534 2541 2537 2547 2547 2537 2550 2539 2562 2547 2559 2555 2553 2550 2528 2525 2544 2550 2539 951 972 944 939 962 948 959 954 949 959 942 931 950 947 954 932 966 949 942 945 961 966 930 967 968 978 945 948 937 932 2604 2602 2615 2601 2618 2596 2594 2610 2598 2589 2627 2588 2598 2597 2608 2603 2598 2588 2589 2606 2585 2613 2603 2604 2603 2615 2575 2604 2597 2607
13 4 18 19 6276 6273 6264 6283 6268 6258 6290 6289 6275 6278 6294 6281 6295 6290 6280 6283 6276 6285 6280 6276 6266 6289 6301 6285 6282 6270 6271 6278 6277 6272 2536 2547 2540 2552 2549 2563 2525 2553 2554 2555 2532 2541 2548 2543 2553 2554 2544 2556 2546 2569 2554 2566 2561 2559 2557 2535 2532 2551 2557 2546 964 985 956 951 975 961 971 966 961 972 954 943 963 959 967 944 979 961 955 957 973 978 942 979 981 990 957 961 950 945 2591 2588 2601 2587 2605 2582 2581 2596 2585 2575 2614 2574 2584 2584 2594 2589 2584 2574 2575 2592 2571 2600 2589 2591 2590 2602 2562 2591 2584 2593
17 11 18 6266 6263 6254 6273 6258 6248 6280 6280 6265 6268 6284 6271 6285 6280 6270 6273 6266 6275 6271 6266 6256 6279 6291 6276 6272 6260 6261 6268 6267 6262 2549 2559 2552 2564 2561 2575 2538 2566 2566 2567 2545 2553 2560 2556 2566 2566 2556 2569 2558 2581 2567 2578 2573 2571 2569 2547 2544 2563 2569 2558 954 975 946 941 965 951 961 956 951 962 944 933 953 949 957 934 969 951 945 948 963 968 932 969 971 980 947 951 940 935 2600 2597 2611 2597 2614 2591 2590 2605 2594 2584 2623 2584 2593 2593 2604 2599 2593 2584 2585 2602 2581 2609 2598 2600 2599 2611 2571 2600 2593 2603
21 21 6279 6276 6267 6286 6272 6261 6294 6293 6279 6281 6298 6285 6298 6294 6284 6286 6279 6288 6284 6280 6270 6293 6305 6289 6285 6274 6275 6282 6281 6276 2532 2543 2536 2548 2545 2558 2521 2549 2550 2550 2528 2537 2544 2539 2549 2550 2539 2552 2542 2565 2550 2561 2557 2555 2553 2530 2528 2546 2553 2541 967 988 959 954 978 964 974 969 964 975 957 946 966 962 970 947 982 964 958 960 976 981 945 982 984 993 960 964 953 948 2588 2585 2599 2585 2602 2579 2578 2593 2582 2572 2611 2572 2581 2581 2592 2586 2581 2572 2573 2590 2569 2597 2586 2588 2587 2599 2559 2588 2581 2591
9 6272 6269 6260 6279 6264 6254 6287 6286 6271 6274 6290 6278 6291 6286 6276 6279 6272 6281 6277 6272 6262 6285 6298 6282 6278 6266 6267 6275 6274 6268 2546 2556 2549 2562 2558 2572 2535 2563 2563 2564 2542 2550 2557 2553 2563 2563 2553 2566 2555 2578 2564 2575 2571 2569 2567 2544 2542 2560 2567 2555 946 967 938 933 957 943 954 949 944 954 937 926 945 941 949 926 961 943 937 940 956 961 925 962 963 973 940 943 932 927 2608 2606 2619 2605 2622 2600 2598 2614 2602 2593 2631 2592 2602 2601 2612 2607 2602 2592 2593 2610 2589 2617 2607 2608 2607 2619 2579 2609 2601 2611
6281 6278 6269 6288 6273 6263 6296 6295 6280 6283 6299 6287 6300 6295 6285 6288 6281 6290 6286 6281 6271 6294 6307 6291 6287 6275 6276 6284 6283 6277 2538 2548 2541 2553 2550 2564 2527 2555 2555 2556 2533 2542 2549 2544 2554 2555 2544 2558 2547 2570 2555 2567 2562 2560 2558 2536 2533 2552 2558 2547 947 968 939 934 958 944 954 950 944 954 937 926 946 942 950 927 962 944 938 940 956 961 925 962 964 973 940 944 933 928 2608 2606 2619 2605 2622 2600 2599 2614 2602 2593 2631 2592 2602 2601 2612 2607 2602 2592 2593 2610 2589 2617 2607 2608 2607 2619 2579 2609 2601 2611
20 20 10 8 18 16 23 4 11 18 16 22 19 9 13 4 20 13 10 12 14 27 10 6 6 15 15 12 12 8708 8721 8711 8720 8718 8730 8695 8723 8724 8726 8705 8710 8719 8716 8728 8725 8721 8728 8718 8739 8729 8733 8732 8729 8728 8704 8705 8724 8728 8716 6222 6209 6225 6203 6209 6209 6214 6199 6225 6225 6204 6203 6206 6211 6219 6190 6228 6207 6203 6225 6218 6220 6215 6213 6208 6199 6228 6226 6228 6197 6968 6977 6972 6959 6954 6959 6955 6964 6960 6953 6991 6960 6956 6967 6951 6971 6964 6936 6956 6958 6956 6971 6955 6962 6952 6977 6976 6968 6965 6966
36 17 20 27 23 17 24 31 29 10 24 19 29 14 24 40 11 30 27 24 39 25 20 23 6 8 9 31 8703 8716 8706 8715 8713 8725 8690 8718 8719 8721 8700 8705 8714 8711 8723 8720 8716 8723 8713 8734 8724 8728 8726 8724 8723 8699 8700 8719 8723 8711 6222 6209 6225 6203 6209 6209 6215 6199 6225 6225 6204 6203 6206 6211 6219 6190 6228 6207 6203 6225 6218 6220 6215 6213 6208 6199 6228 6226 6228 6197 6957 6967 6962 6948 6944 6949 6945 6954 6949 6942 6981 6949 6946 6957 6941 6960 6954 6926 6946 6948 6946 6961 6945 6952 6942 6966 6966 6958 6955 6955
29 16 15 34 42 16 15 34 35 41 39 18 33 17 21 32 14 10 31 39 26 25 14 30 34 31 10 8697 8710 8701 8709 8707 8719 8685 8713 8713 8716 8694 8700 8708 8706 8717 8714 8710 8717 8707 8728 8718 8723 8721 8718 8718 8694 8695 8714 8718 8705 6207 6194 6210 6189 6195 6194 6200 6184 6211 6211 6189 6188 6192 6196 6205 6176 6213 6192 6189 6210 6204 6205 6201 6199 6194 6184 6214 6211 6214 6183 6962 6972 6967 6953 6949 6954 6950 6959 6954 6947 6986 6954 6950 6961 6945 6965 6958 6931 6951 6953 6950 6965 6950 6957 6946 6971 6971 6963 6959 6960
16 27 8 13 13 18 13 8 13 10 15 4 13 25 5 18 21 8 23 9 5 16 14 9 8 21 8714 8727 8718 8726 8724 8736 8702 8730 8730 8733 8711 8717 8725 8723 8734 8732 8727 8734 8724 8745 8735 8740 8738 8735 8735 8711 8712 8731 8735 8722 6230 6217 6233 6211 6217 6217 6223 6207 6233 6233 6212 6211 6214 6219 6227 6198 6236 6215 6212 6233 6226 6228 6223 6221 6216 6207 6236 6234 6236 6205 6972 6981 6976 6963 6958 6963 6959 6968 6964 6957 6995 6964 6960 6971 6955 6975 6968 6940 6960 6962 6960 6975 6959 6966 6956 6981 6980 6972 6969 6970
11 23 28 8 15 26 20 29 25 14 18 8 25 17 13 7 21 34 17 14 3 14 18 15 12 8700 8713 8704 8712 8710 8723 8688 8716 8716 8719 8697 8703 8711 8709 8720 8718 8713 8720 8710 8731 8721 8726 8724 8721 8721 8697 8698 8717 8721 8708 6214 6201 6217 6196 6202 6201 6207 6191 6218 6218 6196 6195 6199 6203 6212 6183 6220 6199 6196 6217 6211 6212 6208 6206 6200 6191 6221 6218 6221 6190 6960 6970 6965 6952 6947 6952 6948 6957 6953 6945 6984 6952 6949 6960 6944 6963 6957 6929 6949 6951 6949 6964 6948 6955 6945 6969 6969 6961 6958 6958
34 38 18 22 37 29 40 36 23 28 18 32 27 20 9 32 44 28 24 13 21 27 24 17 8690 8703 8693 8702 8700 8712 8677 8705 8706 8708 8687 8692 8701 8698 8710 8707 8703 8710 8700 8721 8711 8715 8714 8711 8710 8686 8687 8706 8710 8698 6203 6190 6206 6185 6191 6190 6196 6180 6207 6207 6185 6184 6188 6193 6201 6172 6210 6188 6185 6206 6200 6201 6197 6195 6190 6180 6210 6207 6210 6179 6951 6961 6956 6942 6938 6943 6939 6948 6944 6936 6975 6943 6940 6951 6935 6954 6948 6920 6940 6942 6940 6955 6939 6946 6936 6960 6960 6952 6949 6949
13 18 20 7 13 8 7 17 9 17 24 12 21 27 3 17 8 9 22 21 15 15 25 8722 8735 8725 8734 8732 8744 8709 8737 8738 8740 8719 8724 8733 8730 8742 8739 8735 8742 8732 8753 8743 8747 8745 8743 8742 8718 8719 8738 8742 8730 6237 6224 6240 6219 6225 6224 6230 6214 6240 6240 6219 6218 6221 6226 6234 6205 6243 6222 6219 6240 6234 6235 6231 6229 6223 6214 6243 6241 6244 6212 6979 6989 6984 6970 6966 6971 6967 6976 6971 6964 7003 6971 6967 6978 6962 6982 6976 6948 6968 6970 6967 6982 6967 6974 6963 6988 6988 6980 6976 6977
26 31 19 9 9 5 28 10 26 37 11 31 34 16 28 20 18 28 19 12 14 34 8720 8733 8723 8732 8729 8742 8707 8735 8736 8738 8717 8722 8731 8728 8740 8737 8733 8740 8730 8751 8741 8745 8743 8741 8740 8716 8717 8736 8740 8728 6238 6225 6241 6220 6226 6225 6231 6215 6241 6241 6220 6219 6222 6227 6236 6206 6244 6223 6220 6241 6235 6236 6232 6230 6224 6215 6244 6242 6245 6213 6973 6983 6978 6965 6960 6965 6961 6970 6966 6959 6997 6966 6962 6973 6957 6976 6970 6942 6962 6964 6962 6977 6961 6968 6958 6982 6982 6974 6971 6971
7 19 20 25 23 6 17 1 17 17 6 9 15 26 11 9 5 18 19 16 8 8708 8721 8711 8720 8717 8730 8695 8723 8724 8726 8705 8710 8719 8716 8728 8725 8721 8728 8718 8739 8729 8733 8731 8729 8728 8704 8705 8724 8728 8716 6220 6208 6223 6202 6208 6207 6213 6198 6224 6224 6202 6201 6205 6210 6218 6189 6227 6205 6202 6223 6217 6218 6214 6212 6207 6197 6227 6224 6227 6196 6968 6978 6973 6960 6955 6960 6956 6965 6961 6954 6992 6961 6957 6968 6952 6971 6965 6937 6957 6959 6957 6972 6956 6963 6953 6977 6977 6969 6966 6966
19 26 28 27 4 22 7 10 23 2 13 17 24 12 13 11 26 26 23 6 8711 8724 8714 8723 8721 8733 8698 8726 8727 8729 8708 8713 8722 8719 8731 8728 8724 8731 8721 8742 8732 8736 8735 8732 8731 8707 8708 8727 8731 8719 6222 6209 6225 6204 6210 6209 6215 6199 6226 6226 6204 6203 6206 6211 6220 6190 6228 6207 6204 6225 6219 6220 6216 6214 6208 6199 6229 6226 6229 6197 6973 6983 6978 6965 6960 6965 6961 6970 6966 6958 6997 6965 6962 6973 6957 6976 6970 6942 6962 6964 6962 6977 6961 6968 6958 6982 6982 6974 6971 6971
20 12 14 16 16 19 20 18 20 29 6 10 9 13 24 27 22 21 25 8726 8739 8730 8738 8736 8748 8714 8742 8742 8745 8723 8729 8737 8735 8746 8743 8739 8746 8736 8757 8747 8752 8750 8747 8746 8723 8724 8743 8747 8734 6240 6227 6243 6222 6228 6227 6233 6217 6243 6243 6222 6221 6224 6229 6237 6208 6246 6225 6222 6243 6237 6238 6234 6231 6226 6217 6246 6244 6247 6215 6985 6994 6989 6976 6971 6976 6973 6982 6977 6970 7009 6977 6973 6984 6968 6988 6981 6953 6973 6975 6973 6988 6972 6979 6969 6994 6993 6985 6982 6983
14 9 23 4 19 33 3 25 26 15 30 17 13 21 10 3 5 28 8712 8725 8715 8724 8722 8734 8699 8727 8728 8730 8709 8714 8723 8720 8732 8729 8725 8732 8722 8743 8733 8737 8736 8733 8732 8708 8709 8728 8732 8720 6229 6217 6232 6211 6217 6216 6222 6206 6233 6233 6211 6210 6214 6218 6227 6198 6236 6214 6211 6232 6226 6227 6223 6221 6216 6206 6236 6233 6236 6205 6967 6977 6972 6958 6954 6959 6955 6964 6959 6952 6991 6959 6956 6967 6950 6970 6964 6936 6956 6958 6956 6970 6955 6962 6952 6976 6976 6968 6965 6965
5 24 12 25 31 14 28 34 11 20 16 16 28 24 17 18 32 8726 8739 8729 8738 8735 8748 8713 8741 8742 8744 8723 8728 8737 8734 8746 8743 8739 8746 8736 8757 8747 8751 8749 8747 8746 8722 8723 8742 8746 8734 6242 6229 6245 6224 6230 6229 6235 6219 6246 6246 6224 6223 6227 6231 6240 6211 6248 6227 6224 6245 6239 6240 6236 6234 6229 6219 6249 6246 6249 6218 6981 6991 6986 6972 6968 6973 6969 6978 6973 6966 7005 6973 6969 6980 6964 6984 6977 6950 6970 6972 6969 6984 6969 6976 6965 6990 6990 6982 6978 6979
23 8 22 32 10 27 31 10 23 15 14 25 19 12 13 30 8721 8734 8724 8733 8731 8743 8708 8736 8737 8739 8718 8723 8732 8729 8741 8738 8734 8741 8731 8752 8742 8746 8745 8742 8741 8717 8718 8737 8741 8729 6238 6225 6241 6220 6226 6225 6231 6215 6241 6241 6220 6219 6222 6227 6236 6206 6244 6223 6220 6241 6235 6236 6232 6230 6224 6215 6244 6242 6245 6213 6976 6986 6981 6967 6963 6968 6964 6973 6968 6961 7000 6968 6965 6976 6959 6979 6973 6945 6965 6967 6965 6979 6964 6971 6961 6985 6985 6977 6974 6974
19 6 11 20 4 14 14 21 9 10 11 24 23 20 9 8713 8726 8716 8725 8723 8735 8700 8728 8729 8731 8710 8715 8724 8721 8733 8730 8726 8733 8723 8744 8734 8738 8737 8734 8733 8709 8710 8729 8733 8721 6225 6212 6228 6206 6212 6212 6217 6202 6228 6228 6207 6206 6209 6214 6222 6193 6231 6210 6207 6228 6221 6223 6218 6216 6211 6202 6231 6229 6231 6200 6974 6984 6979 6966 6961 6966 6962 6971 6967 6960 6998 6967 6963 6974 6958 6977 6971 6943 6963 6965 6963 6978 6962 6969 6959 6984 6983 6975 6972 6972
16 29 3 21 24 10 26 12 9 18 12 6 6 25 8714 8727 8717 8726 8724 8736 8701 8729 8730 8732 8711 8716 8725 8722 8734 8731 8727 8734 8724 8745 8735 8739 8737 8735 8734 8710 8711 8730 8734 8722 6230 6217 6233 6212 6218 6217 6223 6207 6234 6234 6212 6211 6215 6219 6228 6199 6236 6215 6212 6233 6227 6228 6224 6222 6217 6207 6237 6234 6237 6206 6970 6980 6975 6961 6957 6962 6958 6967 6962 6955 6994 6962 6958 6969 6953 6973 6967 6939 6959 6961 6958 6973 6958 6965 6954 6979 6979 6971 6967 6968
17 16 6 10 15 26 10 8 6 18 19 16 8 8708 8721 8712 8720 8718 8730 8696 8724 8724 8727 8705 8710 8719 8716 8728 8725 8721 8728 8718 8739 8729 8734 8732 8729 8728 8705 8705 8725 8729 8716 6221 6208 6224 6203 6209 6208 6214 6198 6224 6224 6203 6202 6205 6210 6219 6189 6227 6206 6203 6224 6218 6219 6215 6213 6207 6198 6227 6225 6228 6196 6969 6979 6974 6960 6955 6960 6957 6966 6961 6954 6993 6961 6957 6968 6952 6972 6965 6938 6958 6959 6957 6972 6956 6963 6953 6978 6977 6969 6966 6967
30 12 22 21 20 17 20 21 35 34 31 14 8719 8732 8722 8731 8728 8741 8706 8734 8734 8737 8716 8721 8730 8727 8739 8736 8732 8739 8729 8749 8739 8744 8742 8739 8739 8715 8716 8735 8739 8727 6228 6215 6231 6210 6215 6215 6220 6205 6231 6231 6210 6209 6212 6217 6225 6196 6234 6213 6210 6231 6224 6226 6222 6219 6214 6205 6234 6232 6235 6203 6983 6992 6987 6974 6969 6974 6970 6979 6975 6968 7006 6975 6971 6982 6966 6986 6979 6951 6971 6973 6971 6986 6970 6977 6967 6992 6991 6983 6980 6981
22 23 13 28 14 10 18 10 4 3 25 8711 8724 8715 8723 8721 8734 8699 8727 8727 8730 8709 8714 8722 8720 8731 8729 8724 8731 8722 8742 8732 8737 8735 8732 8732 8708 8709 8728 8732 8719 6228 6215 6231 6210 6216 6215 6221 6205 6232 6232 6210 6209 6212 6217 6226 6196 6234 6213 6210 6231 6225 6226 6222 6220 6214 6205 6235 6232 6235 6203 6968 6977 6972 6959 6954 6959 6955 6964 6960 6953 6991 6960 6956 6967 6951 6971 6964 6936 6956 6958 6956 6971 6955 6962 6952 6977 6976 6968 6965 6966
11 18 25 13 13 9 24 25 21 4 8709 8722 8713 8721 8719 8731 8697 8725 8725 8728 8706 8711 8720 8717 8729 8726 8722 8729 8719 8740 8730 8735 8733 8730 8729 8706 8706 8726 8730 8717 6220 6208 6224 6202 6208 6207 6213 6198 6224 6224 6202 6201 6205 6210 6218 6189 6227 6205 6202 6223 6217 6218 6214 6212 6207 6197 6227 6224 6227 6196 6971 6981 6976 6962 6958 6963 6959 6968 6964 6956 6995 6963 6960 6971 6955 6974 6968 6940 6960 6962 6960 6975 6959 6966 6956 6980 6980 6972 6969 6969
25 35 20 18 6 21 24 21 8 8699 8712 8702 8711 8709 8721 8686 8714 8715 8717 8696 8701 8710 8707 8719 8716 8712 8719 8709 8730 8720 8724 8722 8720 8719 8695 8696 8715 8719 8707 6211 6198 6214 6193 6199 6198 6204 6188 6215 6215 6193 6192 6195 6200 6209 6179 6217 6196 6193 6214 6208 6209 6205 6203 6197 6188 6218 6215 6218 6186 6961 6971 6966 6952 6947 6952 6949 6958 6953 6946 6985 6953 6949 6960 6944 6964 6957 6930 6950 6951 6949 6964 6949 6955 6945 6970 6969 6961 6958 6959
16 5 8 20 21 16 15 22 8721 8734 8724 8733 8731 8743 8708 8736 8737 8739 8718 8723 8732 8729 8741 8738 8734 8741 8731 8752 8742 8746 8745 8742 8741 8717 8718 8737 8741 8729 6235 6222 6238 6217 6223 6222 6228 6212 6239 6239 6217 6216 6220 6224 6233 6204 6241 6220 6217 6238 6232 6233 6229 6227 6222 6212 6242 6239 6242 6211 6979 6989 6984 6970 6966 6971 6967 6976 6971 6964 7003 6971 6967 6978 6962 6982 6976 6948 6968 6970 6967 6982 6967 6974 6963 6988 6988 6980 6976 6977
17 22 32 37 32 31 29 8734 8747 8738 8746 8744 8756 8722 8750 8750 8753 8731 8736 8745 8742 8754 8751 8747 8754 8744 8765 8755 8760 8758 8755 8754 8731 8731 8751 8755 8742 6246 6233 6249 6228 6234 6233 6239 6223 6249 6249 6228 6227 6230 6235 6244 6214 6252 6231 6228 6249 6243 6244 6240 6238 6232 6223 6252 6250 6253 6221 6994 7004 6999 6985 6981 6986 6982 6991 6986 6979 7018 6986 6982 6993 6977 6997 6991 6963 6983 6985 6982 6997 6982 6989 6978 7003 7003 6995 6991 6992
5 15 21 18 16 17 8718 8731 8721 8730 8727 8740 8705 8733 8734 8736 8715 8720 8729 8726 8738 8735 8731 8738 8728 8749 8739 8743 8741 8739 8738 8714 8715 8734 8738 8726 6231 6218 6234 6213 6219 6218 6224 6208 6235 6235 6213 6212 6216 6220 6229 6199 6237 6216 6213 6234 6228 6229 6225 6223 6217 6208 6238 6235 6238 6206 6977 6987 6982 6968 6964 6969 6965 6974 6969 6962 7001 6969 6965 6976 6960 6980 6974 6946 6966 6968 6965 6980 6965 6972 6961 6986 6986 6978 6974 6975
12 16 13 11 16 8713 8727 8717 8725 8723 8736 8701 8729 8729 8732 8711 8716 8725 8722 8733 8731 8726 8733 8724 8744 8734 8739 8737 8734 8734 8710 8711 8730 8734 8721 6228 6215 6231 6209 6215 6215 6221 6205 6231 6231 6210 6209 6212 6217 6225 6196 6234 6213 6210 6231 6224 6226 6221 6219 6214 6205 6234 6232 6234 6203 6972 6982 6977 6963 6959 6964 6960 6969 6964 6957 6996 6964 6961 6972 6956 6975 6969 6941 6961 6963 6961 6975 6960 6967 6957 6981 6981 6973 6970 6970
17 19 16 9 8703 8716 8706 8715 8712 8725 8690 8718 8718 8721 8700 8705 8714 8711 8723 8720 8716 8723 8713 8733 8723 8728 8726 8723 8723 8699 8700 8719 8723 8711 6216 6203 6219 6197 6203 6203 6209 6193 6219 6219 6198 6197 6200 6205 6213 6184 6222 6201 6198 6219 6212 6214 6209 6207 6202 6193 6222 6220 6222 6191 6963 6973 6968 6954 6950 6955 6951 6960 6955 6948 6987 6955 6952 6963 6947 6966 6960 6932 6952 6954 6952 6967 6951 6958 6948 6972 6972 6964 6961 6961
7 6 25 8702 8715 8705 8714 8712 8724 8689 8717 8718 8720 8699 8704 8713 8710 8722 8719 8715 8722 8712 8733 8723 8727 8726 8723 8722 8698 8699 8718 8722 8710 6219 6206 6222 6201 6207 6206 6212 6196 6223 6223 6201 6200 6204 6208 6217 6188 6225 6204 6201 6222 6216 6217 6213 6211 6206 6196 6226 6223 6226 6195 6958 6968 6963 6949 6945 6950 6946 6955 6950 6943 6982 6950 6946 6957 6941 6961 6955 6927 6947 6949 6946 6961 6946 6953 6942 6967 6967 6959 6955 6956
3 27 8709 8722 8712 8721 8719 8731 8696 8724 8725 8727 8706 8711 8720 8717 8729 8726 8722 8729 8719 8740 8730 8734 8733 8730 8729 8705 8706 8725 8729 8717 6226 6214 6230 6208 6214 6213 6219 6204 6230 6230 6208 6207 6211 6216 6224 6195 6233 6211 6208 6229 6223 6224 6220 6218 6213 6204 6233 6230 6233 6202 6964 6974 6969 6956 6951 6956 6952 6961 6957 6950 6988 6957 6953 6964 6948 6967 6961 6933 6953 6955 6953 6968 6952 6959 6949 6973 6973 6965 6962 6962
24 8708 8721 8712 8720 8718 8730 8696 8724 8724 8727 8705 8711 8719 8717 8728 8725 8721 8728 8718 8739 8729 8734 8732 8729 8728 8705 8706 8725 8729 8716 6225 6212 6228 6207 6213 6212 6218 6202 6228 6228 6207 6206 6209 6214 6223 6193 6231 6210 6207 6228 6222 6223 6219 6217 6211 6202 6231 6229 6232 6200 6965 6974 6969 6956 6951 6956 6952 6961 6957 6950 6988 6957 6953 6964 6948 6967 6961 6933 6953 6955 6953 6968 6952 6959 6949 6974 6973 6965 6962 6962
8705 8719 8709 8717 8715 8728 8693 8721 8721 8724 8703 8708 8717 8714 8725 8723 8718 8725 8716 8736 8726 8731 8729 8726 8726 8702 8703 8722 8726 8713 6216 6203 6219 6198 6204 6203 6209 6193 6220 6220 6198 6197 6201 6206 6214 6185 6223 6201 6198 6219 6213 6214 6210 6208 6203 6193 6223 6220 6223 6192 6969 6978 6973 6960 6955 6960 6956 6965 6961 6954 6992 6961 6957 6968 6952 6971 6965 6937 6957 6959 6957 6972 6956 6963 6953 6978 6977 6969 6966 6966
15 4 21 16 30 14 18 18 18 6 10 11 10 22 18 27 20 10 33 23 31 25 23 21 8 7 18 21 10 3097 3121 3089 3101 3114 3104 3107 3115 3093 3100 3103 3097 3107 3102 3101 3106 3103 3106 3104 3090 3106 3109 3087 3114 3119 3132 3088 3092 3082 3101 2799 2788 2805 2804 2825 2799 2801 2808 2801 2798 2800 2791 2804 2793 2818 2795 2796 2813 2795 2810 2792 2805 2809 2804 2813 2802 2763 2799 2795 2804
14 25 21 29 29 17 17 11 16 21 11 6 7 13 15 13 8 26 8 29 20 20 15 22 16 4 14 16 3104 3128 3097 3109 3121 3111 3115 3123 3100 3107 3111 3104 3115 3109 3108 3113 3110 3113 3111 3098 3113 3116 3094 3121 3126 3139 3095 3099 3090 3109 2814 2803 2820 2820 2840 2814 2816 2823 2816 2813 2815 2806 2819 2809 2834 2810 2812 2828 2810 2825 2807 2820 2824 2819 2828 2817 2779 2814 2810 2819
18 13 26 16 14 14 15 9 8 8 8 20 14 27 17 7 29 21 28 21 20 17 9 10 16 17 7 3101 3125 3093 3105 3117 3108 3111 3119 3096 3104 3107 3100 3111 3105 3105 3110 3107 3110 3108 3094 3110 3112 3090 3118 3123 3136 3091 3096 3086 3105 2801 2789 2807 2806 2827 2800 2803 2809 2802 2799 2801 2792 2805 2795 2820 2797 2798 2814 2797 2811 2793 2806 2811 2806 2814 2803 2765 2801 2796 2805
5 11 27 9 9 17 27 12 14 22 28 14 40 16 18 20 28 14 15 11 15 19 28 24 15 11 3116 3140 3108 3120 3132 3123 3126 3134 3111 3119 3122 3115 3126 3120 3120 3125 3122 3125 3123 3109 3125 3128 3105 3133 3138 3151 3106 3111 3101 3120 2796 2785 2802 2801 2822 2796 2798 2804 2798 2795 2797 2788 2801 2790 2815 2792 2793 2810 2792 2807 2789 2802 2806 2801 2810 2799 2760 2796 2792 2801
14 24 7 8 14 22 8 10 18 25 12 36 14 14 21 25 17 15 11 13 15 23 21 14 7 3112 3136 3104 3116 3128 3119 3122 3130 3107 3115 3118 3111 3122 3116 3116 3121 3118 3121 3119 3105 3121 3124 3101 3129 3134 3147 3102 3107 3097 3116 2797 2786 2803 2803 2823 2797 2799 2806 2799 2796 2798 2789 2802 2792 2817 2793 2794 2811 2793 2808 2790 2803 2807 2802 2811 2800 2762 2797 2793 2802
38 13 13 19 35 22 20 28 30 17 44 17 24 13 29 3 12 9 15 29 36 27 16 19 3126 3150 3118 3130 3143 3133 3136 3144 3122 3129 3132 3125 3136 3131 3130 3135 3132 3135 3133 3119 3135 3138 3116 3143 3148 3161 3117 3121 3111 3130 2802 2790 2808 2807 2828 2802 2804 2810 2804 2801 2802 2794 2807 2796 2821 2798 2799 2815 2798 2812 2794 2807 2812 2807 2816 2804 2766 2802 2798 2807
28 29 31 14 16 24 23 36 30 38 33 23 44 37 40 36 34 33 9 15 31 33 21 3089 3113 3081 3093 3105 3096 3099 3107 3084 3092 3095 3088 3099 3093 3092 3097 3095 3098 3095 3082 3098 3100 3078 3106 3110 3124 3079 3084 3074 3093 2787 2775 2793 2792 2813 2786 2789 2795 2788 2786 2787 2778 2791 2781 2806 2783 2784 2800 2783 2797 2779 2792 2797 2792 2800 2789 2751 2787 2783 2791
1 8 23 13 7 15 19 5 32 7 11 16 19 14 8 6 6 19 24 16 7 8 3115 3139 3107 3119 3131 3122 3125 3133 3110 3118 3121 3114 3125 3119 3119 3123 3121 3124 3121 3108 3124 3126 3104 3132 3136 3150 3105 3110 3100 3119 2804 2793 2810 2810 2830 2804 2806 2813 2806 2803 2805 2796 2809 2799 2824 2800 2802 2818 2800 2815 2797 2810 2814 2809 2818 2807 2769 2804 2800 2809
7 23 14 7 15 19 5 32 7 11 15 19 14 8 5 6 20 24 15 6 8 3115 3139 3107 3119 3131 3122 3125 3133 3111 3118 3121 3114 3125 3119 3119 3124 3121 3124 3122 3108 3124 3127 3105 3132 3137 3150 3106 3110 3100 3119 2805 2793 2811 2810 2831 2805 2807 2813 2807 2804 2805 2797 2810 2799 2824 2801 2802 2818 2801 2815 2797 2811 2815 2810 2819 2807 2769 2805 2801 2810
22 18 8 12 12 3 25 2 9 15 12 18 9 9 4 23 23 9 3 12 3114 3138 3106 3118 3130 3121 3124 3132 3109 3117 3120 3113 3124 3118 3117 3123 3120 3123 3120 3107 3123 3125 3103 3131 3135 3149 3104 3109 3099 3118 2812 2800 2818 2817 2838 2811 2814 2820 2813 2811 2812 2803 2816 2806 2831 2808 2809 2825 2808 2822 2804 2817 2822 2817 2825 2814 2776 2812 2807 2816
16 16 11 23 22 24 24 14 37 24 37 30 29 25 12 1 19 25 16 3092 3116 3084 3096 3108 3099 3102 3110 3087 3095 3098 3091 3102 3096 3096 3101 3098 3101 3099 3085 3101 3104 3081 3109 3114 3127 3082 3087 3077 3096 2801 2789 2807 2806 2827 2800 2803 2809 2803 2800 2802 2793 2805 2795 2820 2797 2798 2814 2797 2811 2793 2807 2811 2806 2814 2803 2765 2801 2797 2806
11 16 27 16 35 19 13 29 27 25 21 19 19 7 17 22 19 7 3104 3128 3096 3108 3121 3111 3114 3122 3100 3107 3110 3103 3114 3109 3108 3113 3110 3113 3111 3097 3113 3116 3094 3121 3126 3139 3095 3099 3089 3108 2794 2783 2800 2799 2820 2794 2796 2802 2796 2793 2794 2786 2799 2788 2813 2790 2791 2807 2790 2804 2786 2800 2804 2799 2808 2797 2758 2794 2790 2799
8 16 6 26 9 4 21 16 21 14 12 9 15 17 11 9 5 3108 3132 3100 3112 3125 3115 3118 3126 3104 3111 3115 3108 3118 3113 3112 3117 3114 3117 3115 3101 3117 3120 3098 3125 3130 3143 3099 3103 3094 3113 2805 2794 2811 2810 2831 2805 2807 2813 2807 2804 2806 2797 2810 2799 2824 2801 2802 2819 2801 2816 2798 2811 2815 2810 2819 2808 2769 2805 2801 2810
13 12 19 14 4 27 14 29 20 20 15 17 11 8 15 11 3102 3126 3094 3106 3118 3109 3112 3120 3098 3105 3108 3101 3112 3106 3106 3111 3108 3111 3109 3095 3111 3114 3092 3119 3124 3137 3093 3097 3087 3106 2809 2797 2815 2814 2835 2808 2811 2817 2810 2807 2809 2800 2813 2803 2828 2805 2806 2822 2804 2819 2801 2814 2819 2814 2822 2811 2773 2808 2804 2813
14 15 13 14 23 1 29 19 21 15 29 23 5 14 20 3109 3133 3102 3114 3126 3117 3120 3128 3105 3112 3116 3109 3120 3114 3113 3118 3115 3118 3116 3103 3118 3121 3099 3126 3131 3144 3100 3104 3095 3114 2821 2809 2827 2826 2847 2820 2823 2829 2822 2820 2821 2813 2825 2815 2840 2817 2818 2834 2817 2831 2813 2826 2831 2826 2834 2823 2785 2821 2817 2826
27 3 8 15 14 17 8 8 3 21 22 11 3 10 3114 3138 3106 3118 3130 3121 3124 3132 3109 3117 3120 3113 3124 3118 3118 3123 3120 3123 3121 3107 3123 3125 3103 3131 3136 3149 3104 3109 3099 3118 2809 2798 2815 2814 2835 2809 2811 2817 2811 2808 2810 2801 2814 2803 2828 2805 2806 2823 2805 2820 2802 2815 2819 2814 2823 2812 2773 2809 2805 2814
27 23 38 16 44 33 35 29 34 23 17 28 30 3097 3120 3089 3101 3113 3104 3107 3115 3092 3100 3103 3096 3107 3101 3100 3106 3103 3106 3104 3090 3106 3108 3086 3114 3118 3132 3087 3092 3082 3101 2825 2813 2831 2830 2851 2824 2827 2833 2827 2824 2825 2816 2829 2819 2844 2821 2822 2838 2821 2835 2817 2831 2835 2830 2838 2827 2789 2825 2821 2830
10 13 13 17 7 8 2 24 24 10 1 13 3116 3140 3108 3120 3132 3123 3126 3134 3111 3119 3122 3115 3126 3120 3119 3125 3122 3125 3122 3109 3125 3127 3105 3133 3137 3151 3106 3111 3101 3120 2812 2800 2818 2817 2838 2811 2814 2820 2814 2811 2812 2804 2816 2806 2831 2808 2809 2825 2808 2822 2804 2817 2822 2817 2825 2814 2776 2812 2808 2817
24 14 25 16 16 11 16 14 9 11 8 3106 3129 3098 3110 3122 3113 3116 3124 3101 3108 3112 3105 3116 3110 3109 3114 3111 3114 3112 3099 3114 3117 3095 3122 3127 3141 3096 3101 3091 3110 2807 2796 2813 2812 2833 2807 2809 2816 2809 2806 2808 2799 2812 2801 2826 2803 2804 2821 2803 2818 2800 2813 2817 2812 2821 2810 2771 2807 2803 2812
22 10 8 10 12 35 38 23 12 23 3129 3153 3121 3133 3145 3136 3139 3147 3125 3132 3135 3128 3139 3133 3133 3138 3135 3138 3136 3122 3138 3141 3119 3146 3151 3164 3120 3124 3114 3133 2814 2803 2820 2820 2840 2814 2817 2823 2816 2814 2815 2806 2819 2809 2834 2810 2812 2828 2811 2825 2807 2820 2825 2820 2828 2817 2779 2814 2810 2819
29 18 20 14 30 24 5 14 21 3110 3134 3103 3115 3127 3118 3121 3129 3106 3113 3117 3110 3121 3115 3114 3119 3116 3119 3117 3104 3119 3122 3100 3127 3132 3145 3101 3105 3096 3115 2821 2810 2827 2826 2847 2821 2823 2829 2823 2820 2822 2813 2826 2815 2840 2817 2818 2835 2817 2831 2813 2827 2831 2826 2835 2824 2785 2821 2817 2826
10 9 15 31 38 27 15 21 3128 3152 3121 3133 3145 3135 3139 3147 3124 3131 3135 3128 3139 3133 3132 3137 3134 3137 3135 3122 3137 3140 3118 3145 3150 3163 3119 3123 3114 3133 2805 2793 2811 2810 2831 2805 2807 2813 2807 2804 2805 2797 2810 2799 2824 2801 2802 2819 2801 2815 2797 2811 2815 2810 2819 2807 2769 2805 2801 2810
4 5 27 30 17 5 16 3122 3145 3114 3126 3138 3129 3132 3140 3117 3124 3128 3121 3132 3126 3125 3130 3128 3130 3128 3115 3130 3133 3111 3138 3143 3157 3112 3117 3107 3126 2811 2799 2817 2816 2837 2810 2813 2819 2812 2810 2811 2803 2815 2805 2830 2807 2808 2824 2807 2821 2803 2816 2821 2816 2824 2813 2775 2811 2807 2815
6 25 29 18 6 14 3121 3144 3113 3125 3137 3128 3131 3139 3116 3123 3127 3120 3131 3125 3124 3129 3126 3129 3127 3114 3129 3132 3110 3137 3142 3156 3111 3116 3106 3125 2807 2796 2813 2812 2833 2807 2809 2815 2809 2806 2807 2799 2812 2801 2826 2803 2804 2821 2803 2817 2800 2813 2817 2812 2821 2810 2771 2807 2803 2812
24 25 12 0 12 3117 3141 3109 3121 3133 3124 3127 3135 3112 3120 3123 3116 3127 3121 3121 3126 3123 3126 3124 3110 3126 3128 3106 3134 3139 3152 3107 3112 3102 3121 2811 2799 2817 2816 2837 2810 2813 2819 2813 2810 2811 2803 2815 2805 2830 2807 2808 2824 2807 2821 2803 2816 2821 2816 2824 2813 2775 2811 2807 2816
13 24 24 12 3097 3121 3090 3102 3114 3105 3108 3116 3093 3100 3104 3097 3108 3102 3101 3106 3103 3106 3104 3091 3106 3109 3087 3114 3119 3133 3088 3092 3083 3102 2792 2781 2798 2797 2818 2792 2794 2800 2794 2791 2792 2784 2797 2786 2811 2788 2789 2805 2788 2802 2784 2798 2802 2797 2806 2794 2756 2792 2788 2797
19 25 17 3092 3115 3084 3096 3108 3099 3102 3110 3087 3094 3098 3091 3102 3096 3095 3100 3097 3100 3098 3085 3100 3103 3081 3108 3113 3127 3082 3087 3077 3096 2802 2791 2808 2807 2828 2802 2804 2810 2804 2801 2803 2794 2807 2796 2821 2798 2799 2815 2798 2812 2794 2808 2812 2807 2816 2805 2766 2802 2798 2807
12 16 3108 3132 3100 3112 3124 3115 3118 3126 3103 3111 3114 3107 3118 3112 3112 3117 3114 3117 3115 3101 3117 3119 3097 3125 3130 3143 3098 3103 3093 3112 2816 2805 2822 2821 2842 2816 2818 2824 2818 2815 2816 2808 2821 2810 2835 2812 2813 2829 2812 2826 2808 2822 2826 2821 2830 2818 2780 2816 2812 2821
13 3117 3141 3109 3121 3133 3124 3127 3135 3112 3120 3123 3116 3127 3121 3121 3126 3123 3126 3124 3110 3126 3128 3106 3134 3139 3152 3107 3112 3102 3121 2811 2800 2817 2816 2837 2811 2813 2820 2813 2810 2812 2803 2816 2805 2830 2807 2808 2825 2807 2822 2804 2817 2821 2816 2825 2814 2775 2811 2807 2816
3107 3131 3099 3111 3124 3114 3117 3125 3103 3110 3114 3107 3117 3112 3111 3116 3113 3116 3114 3100 3116 3119 3097 3124 3129 3142 3098 3102 3093 3111 2801 2789 2807 2806 2827 2800 2803 2809 2802 2800 2801 2792 2805 2795 2820 2797 2798 2814 2797 2811 2793 2806 2811 2806 2814 2803 2765 2801 2796 2805
24 8 22 16 13 10 23 5 8 20 28 16 12 4 37 16 15 20 7 10 15 22 18 22 35 10 5 16 31 3553 3551 3564 3550 3567 3545 3544 3559 3547 3538 3577 3537 3547 3547 3557 3552 3547 3537 3538 3555 3534 3562 3552 3553 3552 3565 3525 3554 3546 3556
33 34 10 24 15 21 29 21 31 42 22 26 21 45 20 24 30 32 15 13 43 7 4 12 34 29 40 42 3573 3571 3584 3570 3587 3565 3564 3579 3567 3558 3597 3557 3567 3567 3577 3572 3567 3557 3558 3575 3554 3582 3572 3573 3572 3585 3545 3574 3566 3576
22 24 17 18 28 5 15 21 25 20 14 12 37 23 19 21 1 18 23 16 26 30 43 4 5 7 30 3546 3543 3556 3542 3559 3537 3536 3551 3540 3530 3569 3529 3539 3539 3549 3544 3539 3529 3530 3547 3526 3555 3544 3546 3545 3557 3517 3546 3539 3549
24 11 23 16 24 30 3 8 12 11 22 15 37 10 4 22 27 31 15 30 30 40 25 24 25 9 3540 3537 3550 3536 3553 3531 3530 3545 3534 3524 3563 3523 3533 3533 3543 3538 3533 3523 3524 3541 3520 3549 3538 3540 3538 3551 3511 3540 3533 3542
14 6 14 21 16 21 32 13 16 13 37 19 14 21 23 9 11 33 6 6 19 26 21 31 33 3564 3561 3574 3560 3577 3555 3554 3569 3558 3548 3587 3547 3557 3557 3567 3562 3557 3547 3548 3565 3544 3573 3562 3564 3562 3575 3535 3564 3557 3566
12 11 17 20 8 18 3 3 12 25 26 2 8 16 16 21 20 19 20 32 20 17 23 20 3549 3547 3560 3546 3563 3541 3540 3555 3543 3534 3573 3533 3543 3543 3553 3548 3543 3533 3534 3551 3530 3558 3548 3549 3548 3561 3521 3550 3542 3552
16 15 11 20 30 12 13 7 37 15 13 20 17 4 9 29 8 12 25 20 15 26 32 3560 3558 3571 3557 3574 3552 3550 3566 3554 3545 3584 3544 3554 3554 3564 3559 3554 3544 3545 3562 3541 3569 3559 3560 3559 3572 3532 3561 3553 3563
27 27 13 24 8 14 21 25 31 10 13 28 21 24 29 19 17 24 31 27 34 22 3555 3552 3565 3551 3568 3546 3545 3560 3549 3539 3578 3538 3548 3548 3558 3553 3548 3538 3539 3556 3535 3564 3553 3555 3553 3566 3526 3555 3548 3558
10 23 29 19 14 8 39 18 19 23 4 14 18 21 22 26 40 5 1 12 33 3551 3548 3562 3547 3565 3542 3541 3556 3545 3535 3574 3534 3544 3544 3554 3549 3544 3534 3536 3552 3531 3560 3549 3551 3550 3562 3522 3551 3544 3554
27 36 21 19 8 45 8 21 27 14 7 9 31 14 20 33 15 11 22 39 3561 3559 3572 3558 3575 3553 3551 3567 3555 3545 3585 3545 3555 3554 3565 3560 3555 3545 3546 3563 3542 3570 3559 3561 3560 3572 3533 3562 3554 3564
11 9 9 20 17 34 7 0 21 24 29 17 27 27 36 25 23 25 12 3543 3541 3554 3540 3556 3534 3533 3548 3537 3527 3566 3527 3536 3536 3546 3542 3536 3526 3528 3544 3524 3552 3541 3543 3542 3554 3514 3543 3536 3546
20 18 29 13 43 18 11 26 34 39 13 38 38 47 29 29 27 6 3532 3529 3542 3528 3545 3523 3522 3537 3526 3516 3555 3515 3525 3525 3535 3530 3525 3515 3517 3533 3512 3541 3530 3532 3530 3543 3503 3532 3525 3535
6 14 25 27 2 8 19 16 21 22 18 18 29 23 20 26 20 3551 3549 3562 3548 3565 3543 3541 3557 3545 3535 3575 3535 3545 3544 3555 3550 3545 3535 3536 3553 3532 3560 3549 3551 3550 3562 3523 3552 3544 3554
11 26 26 5 9 14 16 21 17 20 22 34 17 15 20 20 3548 3546 3559 3545 3562 3539 3538 3553 3542 3532 3571 3532 3541 3541 3551 3547 3541 3531 3533 3549 3529 3557 3546 3548 3547 3559 3519 3548 3541 3551
37 15 14 20 11 6 11 25 14 18 32 13 9 19 31 3556 3554 3567 3553 3570 3548 3546 3562 3550 3540 3580 3540 3550 3549 3560 3555 3550 3540 3541 3558 3537 3565 3554 3556 3555 3567 3528 3557 3549 3559
51 24 17 37 41 45 25 43 41 48 40 40 39 7 3531 3529 3542 3528 3545 3523 3522 3537 3525 3516 3555 3515 3525 3525 3535 3530 3525 3515 3516 3533 3512 3540 3530 3531 3530 3543 3503 3532 3524 3534
28 34 22 11 8 38 14 20 32 22 18 29 46 3568 3566 3579 3565 3582 3560 3559 3574 3563 3553 3592 3552 3562 3562 3572 3567 3562 3552 3553 3570 3549 3577 3567 3568 3567 3580 3540 3569 3562 3571
7 18 17 22 21 20 20 31 22 19 25 19 3550 3547 3560 3546 3563 3541 3540 3555 3544 3534 3573 3533 3543 3543 3553 3548 3543 3533 3534 3551 3530 3559 3548 3550 3548 3561 3521 3550 3543 3552
21 24 28 17 27 26 36 25 23 25 12 3543 3541 3554 3540 3557 3535 3533 3549 3537 3527 3567 3527 3537 3536 3547 3542 3537 3526 3528 3545 3524 3552 3541 3543 3542 3554 3515 3544 3536 3546
17 22 18 25 29 42 4 4 8 30 3547 3545 3558 3544 3561 3538 3537 3552 3541 3531 3570 3531 3540 3540 3551 3546 3541 3530 3532 3549 3528 3556 3545 3547 3546 3558 3518 3547 3540 3550
5 31 8 13 26 19 14 25 36 3562 3560 3573 3559 3576 3554 3553 3568 3557 3547 3586 3546 3556 3556 3566 3561 3556 3546 3547 3564 3543 3571 3561 3562 3561 3574 3534 3563 3556 3565
36 6 12 24 23 18 30 40 3568 3565 3578 3564 3581 3559 3558 3573 3562 3552 3591 3551 3561 3561 3571 3566 3561 3551 3552 3569 3548 3577 3566 3567 3566 3579 3539 3568 3561 3570
37 39 51 19 21 15 19 3531 3529 3542 3528 3545 3523 3522 3537 3526 3516 3555 3515 3525 3525 3535 3530 3525 3515 3516 3533 3512 3541 3530 3531 3530 3543 3503 3532 3525 3534
6 19 27 22 33 38 3568 3566 3579 3565 3582 3560 3559 3574 3562 3553 3592 3552 3562 3562 3572 3567 3562 3552 3553 3570 3549 3577 3567 3568 3567 3580 3540 3569 3561 3571
13 31 27 37 38 3569 3567 3580 3566 3583 3561 3560 3575 3564 3554 3593 3553 3563 3563 3573 3568 3563 3553 3554 3571 3550 3578 3568 3569 3568 3581 3541 3570 3563 3572
45 40 50 46 3579 3576 3589 3575 3592 3570 3569 3584 3573 3563 3602 3562 3572 3572 3582 3577 3572 3562 3563 3580 3559 3588 3577 3579 3577 3590 3550 3579 3572 3581
5 7 33 3547 3545 3558 3544 3561 3538 3537 3552 3541 3531 3570 3531 3540 3540 3550 3546 3540 3530 3532 3548 3528 3556 3545 3547 3546 3558 3518 3547 3540 3550
11 33 3551 3548 3561 3547 3564 3542 3541 3556 3545 3535 3574 3534 3544 3544 3554 3549 3544 3534 3535 3552 3531 3560 3549 3551 3549 3562 3522 3551 3544 3553
32 3540 3537 3551 3536 3554 3531 3530 3545 3534 3524 3563 3523 3533 3533 3543 3538 3533 3523 3525 3541 3520 3549 3538 3540 3539 3551 3511 3540 3533 3543
3533 3530 3543 3529 3546 3524 3523 3538 3527 3517 3556 3516 3526 3526 3536 3531 3526 3516 3518 3534 3513 3542 3531 3533 3531 3544 3504 3533 3526 3536
12 11 9 26 10 13 8 8 18 28 16 12 7 21 4 6 31 16 11 20 9 13 6 17 12 38 1 7 5
18 20 38 18 22 20 18 25 26 19 22 10 33 8 13 41 21 24 23 17 25 18 29 16 29 12 12 17
16 22 20 22 8 18 28 20 27 20 18 22 13 17 38 26 14 30 2 18 12 21 5 46 10 18 9
22 6 6 9 4 12 35 15 4 11 14 12 8 23 12 6 17 14 5 4 9 19 41 9 9 8
28 27 18 25 32 38 37 24 32 10 30 29 31 34 16 38 22 18 21 16 27 63 26 31 21
4 14 3 8 38 9 5 8 20 12 5 23 7 12 11 18 10 9 14 22 36 11 6 12
15 5 6 41 10 3 12 18 15 9 19 7 12 11 20 9 10 12 25 38 14 10 14
11 21 28 22 13 15 14 12 13 30 21 6 25 6 10 5 13 12 46 8 14 4
10 36 12 4 9 17 11 5 23 9 9 14 16 8 6 12 20 38 9 6 9
46 8 9 15 23 19 12 18 4 17 7 26 15 16 17 30 35 19 13 19
43 39 33 41 27 34 58 43 34 46 21 37 31 40 16 53 27 33 28
13 10 28 16 10 26 4 21 4 25 19 17 22 28 28 17 9 19
12 15 15 9 20 10 8 14 18 6 8 9 23 41 12 10 11
25 6 3 31 11 16 14 16 16 11 20 18 31 8 2 12
25 22 21 24 9 29 20 9 15 6 26 55 21 23 17
7 34 16 16 19 11 17 10 21 13 34 4 7 9
28 10 13 13 15 13 8 17 18 33 7 1 10
22 24 23 36 20 27 18 42 52 32 29 30
18 4 25 16 15 18 28 32 17 10 18
22 13 4 6 6 18 47 12 14 8
28 20 19 23 32 29 20 13 22
16 10 19 6 45 9 16 7
7 4 22 46 14 14 10
11 15 42 6 9 4
25 50 17 18 14
45 12 19 12
38 32 42
7 5
11

EOF
