NAME: clustered_150_s1
TYPE: TSP
DIMENSION: 150
EDGE_WEIGHT_TYPE: EXPLICIT
EDGE_WEIGHT_FORMAT: UPPER_ROW
EDGE_WEIGHT_SECTION
18 21 16 19 16 21 11 15 11 25 31 10 15 18 34 20 9 14 17 5 15 8 22 5 9 6 14 19 16 2372 2366 2352 2380 2357 2366 2372 2369 2374 2359 2372 2362 2369 2374 2368 2388 2366 2354 2358 2364 2377 2367 2384 2361 2362 2368 2359 2356 2389 2343 8514 8524 8513 8516 8526 8528 8529 8505 8518 8521 8514 8529 8522 8528 8502 8518 8521 8518 8516 8510 8512 8520 8517 8516 8512 8530 8504 8515 8491 8527 4324 4324 4363 4348 4343 4348 4334 4326 4332 4314 4332 4344 4339 4344 4335 4334 4329 4335 4336 4324 4334 4336 4348 4337 4321 4340 4338 4349 4353 4321 2768 2772 2769 2768 2767 2763 2781 2779 2766 2772 2765 2744 2775 2764 2765 2768 2762 2765 2772 2772 2759 2758 2763 2762 2764 2769 2774 2768 2762 2756
14 6 9 18 14 11 18 12 7 43 14 7 20 20 3 25 8 24 17 11 13 5 14 10 15 5 23 9 2375 2370 2356 2383 2361 2369 2375 2372 2377 2363 2376 2366 2373 2378 2372 2391 2370 2357 2361 2367 2380 2371 2387 2365 2365 2371 2363 2359 2392 2347 8532 8542 8531 8534 8544 8546 8547 8523 8536 8539 8532 8547 8540 8547 8520 8536 8540 8537 8535 8528 8530 8538 8535 8534 8531 8548 8522 8533 8509 8546 4333 4333 4372 4357 4351 4357 4343 4335 4341 4323 4341 4353 4348 4353 4344 4343 4338 4344 4345 4333 4343 4345 4357 4346 4330 4349 4347 4358 4362 4330 2786 2791 2787 2786 2785 2781 2800 2797 2785 2791 2783 2762 2794 2782 2784 2786 2781 2783 2790 2791 2778 2777 2782 2780 2782 2788 2793 2787 2780 2774
9 6 8 1 10 9 10 19 33 11 8 31 15 12 22 8 14 16 7 12 12 16 17 22 16 11 7 2389 2383 2369 2397 2374 2382 2389 2386 2390 2376 2389 2379 2386 2391 2385 2405 2383 2370 2375 2380 2393 2384 2400 2378 2379 2385 2376 2372 2405 2360 8531 8541 8530 8533 8543 8545 8546 8522 8535 8538 8531 8546 8539 8545 8519 8535 8538 8536 8534 8527 8529 8537 8534 8533 8529 8547 8521 8532 8508 8545 4344 4344 4382 4368 4362 4368 4354 4346 4352 4334 4352 4364 4358 4364 4355 4353 4348 4355 4355 4344 4354 4355 4368 4357 4341 4360 4358 4369 4373 4341 2783 2788 2784 2783 2782 2778 2797 2794 2782 2788 2780 2759 2791 2779 2781 2783 2778 2780 2787 2788 2775 2774 2779 2777 2779 2785 2790 2784 2777 2771
4 12 9 7 13 7 12 38 9 2 22 19 5 21 3 19 13 5 9 6 11 9 15 6 17 3 2379 2374 2360 2387 2364 2373 2379 2376 2381 2367 2380 2370 2377 2382 2376 2395 2374 2361 2365 2371 2384 2375 2391 2369 2369 2375 2367 2363 2396 2351 8530 8540 8529 8531 8542 8543 8545 8521 8534 8537 8530 8544 8538 8544 8518 8534 8537 8534 8532 8526 8528 8536 8532 8532 8528 8546 8519 8531 8507 8543 4336 4336 4374 4360 4354 4359 4345 4338 4343 4325 4343 4356 4350 4355 4346 4345 4340 4347 4347 4335 4346 4347 4360 4349 4333 4351 4350 4361 4364 4333 2783 2788 2784 2783 2782 2778 2797 2794 2782 2787 2780 2759 2790 2779 2781 2783 2778 2780 2787 2788 2774 2774 2778 2777 2779 2785 2790 2784 2777 2771
10 5 8 11 8 13 37 10 4 27 16 6 23 5 18 15 5 11 7 14 13 18 11 15 3 2383 2378 2364 2392 2369 2377 2384 2381 2385 2371 2384 2374 2381 2386 2380 2400 2378 2365 2370 2375 2388 2379 2395 2373 2374 2380 2371 2367 2400 2355 8532 8542 8531 8533 8544 8545 8546 8523 8536 8539 8532 8546 8540 8546 8520 8536 8539 8536 8534 8528 8530 8538 8534 8534 8530 8548 8521 8533 8509 8545 4340 4340 4378 4364 4358 4363 4349 4342 4348 4330 4348 4360 4354 4360 4350 4349 4344 4351 4351 4340 4350 4351 4364 4353 4337 4355 4354 4365 4369 4337 2784 2789 2785 2785 2784 2779 2798 2796 2783 2789 2781 2761 2792 2781 2782 2785 2779 2781 2789 2789 2776 2775 2780 2779 2781 2786 2791 2785 2779 2773
8 8 1 8 23 26 6 10 30 22 16 15 9 7 10 7 8 17 12 15 19 17 5 9 2387 2381 2367 2395 2372 2381 2387 2384 2389 2374 2387 2377 2384 2389 2383 2403 2381 2369 2373 2378 2392 2382 2399 2376 2377 2383 2374 2370 2403 2358 8523 8533 8522 8525 8536 8537 8538 8515 8528 8530 8523 8538 8532 8538 8512 8527 8531 8528 8526 8519 8522 8529 8526 8525 8522 8540 8513 8525 8500 8537 4340 4340 4378 4364 4358 4363 4349 4342 4347 4330 4347 4360 4354 4360 4350 4349 4344 4351 4351 4339 4350 4351 4364 4353 4337 4355 4354 4365 4369 4337 2775 2780 2776 2776 2775 2770 2789 2787 2774 2780 2772 2752 2783 2772 2773 2776 2770 2772 2780 2780 2767 2766 2771 2770 2772 2777 2782 2776 2770 2764
10 9 10 18 33 11 8 31 14 11 22 8 15 16 6 12 11 16 16 22 15 12 6 2388 2383 2368 2396 2373 2382 2388 2385 2390 2376 2389 2379 2386 2391 2385 2404 2383 2370 2374 2380 2393 2384 2400 2377 2378 2384 2376 2372 2405 2360 8531 8541 8530 8533 8544 8545 8546 8523 8536 8538 8531 8546 8539 8546 8520 8535 8539 8536 8534 8527 8530 8537 8534 8533 8530 8548 8521 8533 8508 8545 4344 4344 4382 4368 4362 4367 4353 4346 4351 4333 4351 4364 4358 4363 4354 4353 4348 4355 4355 4343 4354 4355 4368 4357 4340 4359 4358 4369 4372 4341 2783 2788 2784 2784 2783 2778 2797 2795 2782 2788 2780 2760 2791 2780 2781 2784 2778 2780 2788 2788 2775 2774 2779 2778 2780 2785 2790 2784 2778 2772
8 0 18 32 3 5 22 24 11 15 4 13 7 4 2 13 6 7 11 9 13 6 2379 2374 2360 2387 2365 2373 2379 2376 2381 2367 2380 2370 2377 2382 2376 2395 2374 2361 2365 2371 2384 2375 2391 2369 2369 2375 2367 2363 2396 2351 8523 8534 8522 8525 8536 8537 8538 8515 8528 8530 8523 8538 8532 8538 8512 8528 8531 8528 8526 8519 8522 8529 8526 8525 8522 8540 8513 8525 8500 8537 4334 4333 4372 4358 4352 4357 4343 4336 4341 4323 4341 4354 4348 4353 4344 4343 4338 4344 4345 4333 4343 4345 4358 4347 4330 4349 4348 4359 4362 4331 2776 2781 2777 2777 2776 2771 2790 2788 2775 2781 2774 2753 2784 2773 2774 2777 2771 2773 2781 2781 2768 2767 2772 2771 2773 2778 2783 2777 2771 2765
8 24 25 6 11 30 23 17 14 10 6 10 8 9 18 12 15 19 17 5 10 2387 2381 2367 2395 2372 2381 2387 2384 2388 2374 2387 2377 2384 2389 2383 2403 2381 2369 2373 2378 2391 2382 2399 2376 2377 2383 2374 2370 2403 2358 8522 8532 8521 8524 8535 8536 8537 8514 8527 8529 8522 8537 8530 8537 8511 8526 8530 8527 8525 8518 8521 8528 8525 8524 8521 8539 8512 8524 8499 8536 4340 4339 4378 4364 4358 4363 4349 4341 4347 4329 4347 4360 4354 4359 4350 4349 4344 4350 4351 4339 4349 4351 4364 4352 4336 4355 4353 4365 4368 4336 2774 2779 2775 2775 2774 2769 2788 2786 2773 2779 2771 2751 2782 2771 2772 2775 2769 2771 2779 2779 2766 2765 2770 2769 2771 2776 2781 2775 2769 2763
18 32 2 5 23 24 11 15 4 13 7 4 2 13 6 8 12 9 13 6 2380 2374 2360 2388 2365 2374 2380 2377 2381 2367 2380 2370 2377 2382 2376 2396 2374 2362 2366 2371 2384 2375 2392 2369 2370 2376 2367 2363 2396 2351 8524 8534 8523 8525 8536 8537 8538 8515 8528 8531 8523 8538 8532 8538 8512 8528 8531 8528 8526 8520 8522 8529 8526 8526 8522 8540 8513 8525 8501 8537 4334 4334 4372 4358 4352 4358 4344 4336 4342 4324 4342 4354 4348 4354 4345 4343 4338 4345 4345 4334 4344 4345 4358 4347 4331 4350 4348 4359 4363 4331 2776 2781 2777 2777 2776 2772 2790 2788 2775 2781 2774 2753 2784 2773 2774 2777 2771 2773 2781 2781 2768 2767 2772 2771 2773 2778 2783 2777 2771 2765
49 20 13 23 20 7 32 14 30 24 17 20 7 21 16 21 11 29 14 2375 2369 2355 2383 2360 2368 2375 2372 2376 2362 2375 2365 2372 2377 2371 2391 2369 2357 2361 2366 2379 2370 2386 2364 2365 2371 2362 2358 2391 2346 8538 8548 8537 8540 8551 8552 8553 8530 8543 8545 8538 8553 8546 8553 8527 8542 8546 8543 8541 8534 8537 8544 8541 8540 8537 8555 8528 8540 8515 8552 4335 4335 4373 4359 4353 4358 4344 4337 4342 4324 4342 4355 4349 4354 4345 4344 4339 4346 4346 4334 4345 4346 4359 4348 4332 4350 4349 4360 4363 4332 2793 2797 2793 2793 2792 2788 2806 2804 2791 2797 2790 2769 2800 2789 2790 2793 2787 2790 2797 2797 2784 2783 2788 2787 2789 2794 2799 2793 2787 2781
29 36 49 46 42 22 35 19 28 33 31 43 32 37 37 41 21 35 2396 2390 2376 2404 2381 2390 2396 2393 2398 2383 2396 2386 2394 2398 2392 2412 2390 2378 2382 2388 2401 2391 2408 2385 2386 2392 2383 2380 2412 2367 8503 8513 8502 8505 8515 8517 8518 8494 8507 8510 8503 8518 8511 8517 8491 8507 8510 8508 8506 8499 8501 8509 8506 8505 8501 8519 8493 8504 8480 8517 4341 4341 4379 4365 4359 4364 4350 4343 4348 4330 4348 4361 4355 4360 4351 4350 4345 4351 4352 4340 4350 4352 4365 4354 4337 4356 4355 4366 4369 4338 2753 2758 2754 2753 2752 2748 2767 2764 2752 2758 2750 2729 2761 2749 2751 2753 2748 2750 2757 2758 2744 2744 2749 2747 2749 2755 2760 2754 2747 2741
7 24 25 14 13 6 11 5 5 2 15 6 9 12 12 11 7 2380 2375 2361 2389 2366 2374 2381 2378 2382 2368 2381 2371 2378 2383 2377 2397 2375 2362 2367 2372 2385 2376 2392 2370 2371 2377 2368 2364 2397 2352 8522 8532 8521 8523 8534 8535 8537 8513 8526 8529 8522 8536 8530 8536 8510 8526 8529 8526 8524 8518 8520 8528 8525 8524 8520 8538 8511 8523 8499 8535 4334 4334 4373 4358 4352 4358 4344 4336 4342 4324 4342 4354 4349 4354 4345 4343 4339 4345 4346 4334 4344 4346 4358 4347 4331 4350 4348 4359 4363 4331 2775 2779 2775 2775 2774 2770 2788 2786 2773 2779 2772 2751 2782 2771 2772 2775 2769 2771 2779 2779 2766 2765 2770 2769 2771 2776 2781 2775 2769 2763
23 19 6 20 1 17 12 3 7 8 10 9 15 7 16 2 2380 2375 2361 2388 2365 2374 2380 2377 2382 2368 2381 2371 2378 2383 2377 2396 2375 2362 2366 2372 2385 2376 2392 2369 2370 2376 2368 2364 2397 2352 8529 8539 8528 8530 8541 8542 8543 8520 8533 8536 8529 8543 8537 8543 8517 8533 8536 8533 8531 8525 8527 8535 8531 8531 8527 8545 8518 8530 8506 8542 4336 4336 4375 4360 4354 4360 4346 4338 4344 4326 4344 4356 4351 4356 4347 4346 4341 4347 4348 4336 4346 4348 4360 4349 4333 4352 4350 4361 4365 4333 2782 2787 2783 2782 2781 2777 2795 2793 2781 2786 2779 2758 2789 2778 2780 2782 2776 2779 2786 2787 2773 2772 2777 2776 2778 2783 2788 2783 2776 2770
40 23 27 23 34 22 25 22 25 18 15 12 16 35 25 2357 2351 2337 2365 2342 2351 2357 2354 2359 2345 2358 2347 2355 2360 2354 2373 2352 2339 2343 2349 2362 2353 2369 2346 2347 2353 2345 2341 2374 2329 8519 8529 8518 8521 8531 8532 8534 8510 8523 8526 8519 8534 8527 8533 8507 8523 8526 8523 8521 8515 8517 8525 8522 8521 8517 8535 8509 8520 8496 8532 4314 4313 4352 4338 4332 4337 4323 4316 4321 4303 4321 4334 4328 4333 4324 4323 4318 4324 4325 4313 4323 4325 4338 4326 4310 4329 4328 4339 4342 4311 2775 2780 2776 2775 2774 2770 2788 2786 2774 2779 2772 2751 2782 2771 2773 2775 2770 2772 2779 2780 2766 2765 2770 2769 2771 2777 2781 2776 2769 2763
17 37 20 29 30 20 26 15 29 28 34 24 25 18 2394 2389 2375 2402 2379 2388 2395 2391 2396 2382 2395 2385 2392 2397 2391 2410 2389 2376 2380 2386 2399 2390 2406 2384 2384 2390 2382 2378 2411 2366 8546 8556 8545 8547 8558 8559 8560 8537 8550 8553 8546 8560 8554 8560 8534 8550 8553 8550 8548 8542 8544 8552 8548 8548 8544 8562 8535 8547 8523 8559 4354 4354 4392 4378 4372 4377 4363 4356 4361 4343 4361 4374 4368 4373 4364 4363 4358 4364 4365 4353 4363 4365 4378 4367 4350 4369 4368 4379 4382 4351 2797 2802 2798 2798 2797 2793 2811 2809 2796 2802 2795 2774 2805 2794 2795 2798 2792 2794 2802 2802 2789 2788 2793 2792 2794 2799 2804 2798 2792 2786
26 7 23 18 9 13 2 15 12 18 7 21 7 2379 2373 2359 2387 2364 2372 2379 2376 2380 2366 2379 2369 2376 2381 2375 2395 2373 2360 2365 2370 2383 2374 2390 2368 2369 2375 2366 2362 2395 2350 8534 8544 8533 8536 8546 8547 8549 8525 8538 8541 8534 8549 8542 8548 8522 8538 8541 8538 8536 8530 8532 8540 8537 8536 8532 8550 8523 8535 8511 8547 4337 4336 4375 4361 4355 4360 4346 4339 4344 4326 4344 4357 4351 4356 4347 4346 4341 4347 4348 4336 4346 4348 4361 4349 4333 4352 4351 4362 4365 4334 2787 2792 2788 2788 2787 2782 2801 2799 2786 2792 2784 2764 2795 2784 2785 2788 2782 2784 2792 2792 2779 2778 2783 2782 2783 2789 2794 2788 2782 2776
19 12 8 18 13 28 12 17 15 22 15 20 2378 2372 2358 2386 2363 2372 2378 2375 2379 2365 2378 2368 2375 2380 2374 2394 2372 2359 2364 2369 2382 2373 2390 2367 2368 2374 2365 2361 2394 2349 8509 8519 8508 8511 8521 8523 8524 8500 8513 8516 8509 8524 8517 8523 8497 8513 8516 8514 8512 8505 8507 8515 8512 8511 8507 8525 8499 8510 8486 8523 4328 4327 4366 4352 4346 4351 4337 4329 4335 4317 4335 4348 4342 4347 4338 4337 4332 4338 4339 4327 4337 4339 4352 4340 4324 4343 4341 4353 4356 4324 2762 2767 2763 2762 2761 2757 2775 2773 2761 2766 2759 2738 2769 2758 2760 2762 2756 2759 2766 2767 2753 2752 2757 2756 2758 2764 2768 2763 2756 2750
16 11 3 6 9 9 8 14 8 15 2 2380 2374 2360 2388 2365 2374 2380 2377 2382 2368 2381 2370 2378 2382 2376 2396 2375 2362 2366 2372 2385 2376 2392 2369 2370 2376 2368 2364 2397 2352 8528 8538 8527 8529 8540 8541 8542 8519 8532 8535 8527 8542 8536 8542 8516 8532 8535 8532 8530 8524 8526 8534 8530 8530 8526 8544 8517 8529 8505 8541 4336 4336 4374 4360 4354 4359 4345 4338 4343 4325 4343 4356 4350 4355 4346 4345 4340 4347 4347 4335 4346 4347 4360 4349 4332 4351 4350 4361 4364 4333 2781 2785 2782 2781 2780 2776 2794 2792 2779 2785 2778 2757 2788 2777 2778 2781 2775 2778 2785 2785 2772 2771 2776 2775 2777 2782 2787 2781 2775 2769
12 14 13 24 16 20 21 22 4 16 2388 2383 2369 2397 2374 2382 2389 2386 2390 2376 2389 2379 2386 2391 2385 2405 2383 2370 2375 2380 2393 2384 2400 2378 2379 2385 2376 2372 2405 2360 8517 8528 8516 8519 8530 8531 8532 8509 8522 8524 8517 8532 8526 8532 8506 8522 8525 8522 8520 8513 8516 8523 8520 8519 8516 8534 8507 8519 8494 8531 4340 4339 4378 4364 4358 4363 4349 4341 4347 4329 4347 4360 4354 4359 4350 4349 4344 4350 4351 4339 4349 4351 4363 4352 4336 4355 4353 4365 4368 4336 2769 2774 2770 2769 2768 2764 2782 2780 2768 2773 2766 2745 2776 2765 2767 2769 2764 2766 2773 2774 2760 2759 2764 2763 2765 2771 2775 2770 2763 2757
10 5 20 4 9 10 14 13 12 2377 2372 2357 2385 2362 2371 2377 2374 2379 2365 2378 2367 2375 2380 2373 2393 2372 2359 2363 2369 2382 2373 2389 2366 2367 2373 2365 2361 2394 2348 8517 8527 8516 8518 8529 8530 8532 8508 8521 8524 8517 8531 8525 8531 8505 8521 8524 8521 8519 8513 8515 8523 8520 8519 8515 8533 8506 8518 8494 8530 4330 4329 4368 4354 4348 4353 4339 4332 4337 4319 4337 4350 4344 4349 4340 4339 4334 4340 4341 4329 4339 4341 4354 4343 4326 4345 4344 4355 4358 4327 2770 2775 2771 2770 2769 2765 2783 2781 2769 2774 2767 2746 2777 2766 2768 2770 2764 2767 2774 2775 2761 2760 2765 2764 2766 2772 2776 2771 2764 2758
6 11 10 10 15 10 12 2 2382 2377 2363 2390 2368 2376 2383 2380 2384 2370 2383 2373 2380 2385 2379 2398 2377 2364 2368 2374 2387 2378 2394 2372 2373 2379 2370 2366 2399 2354 8527 8537 8526 8529 8539 8541 8542 8518 8531 8534 8527 8542 8535 8541 8515 8531 8534 8532 8529 8523 8525 8533 8530 8529 8525 8543 8517 8528 8504 8540 4338 4337 4376 4362 4356 4361 4347 4339 4345 4327 4345 4358 4352 4357 4348 4347 4342 4348 4349 4337 4347 4349 4362 4350 4334 4353 4351 4363 4366 4334 2780 2785 2781 2780 2779 2775 2793 2791 2779 2784 2777 2756 2787 2776 2777 2780 2774 2777 2784 2784 2771 2770 2775 2774 2776 2781 2786 2781 2774 2768
15 4 7 10 10 13 8 2378 2373 2359 2386 2364 2372 2378 2375 2380 2366 2379 2369 2376 2381 2375 2394 2373 2360 2364 2370 2383 2374 2390 2368 2368 2374 2366 2362 2395 2350 8521 8531 8520 8523 8534 8535 8536 8512 8526 8528 8521 8536 8529 8536 8510 8525 8529 8526 8524 8517 8520 8527 8524 8523 8520 8538 8511 8523 8498 8535 4332 4332 4371 4356 4350 4356 4342 4334 4340 4322 4340 4352 4347 4352 4343 4341 4337 4343 4343 4332 4342 4344 4356 4345 4329 4348 4346 4357 4361 4329 2774 2779 2775 2775 2774 2769 2788 2786 2773 2779 2771 2751 2782 2771 2772 2775 2769 2771 2779 2779 2766 2765 2770 2769 2770 2776 2781 2775 2769 2763
17 14 20 10 22 8 2380 2375 2361 2388 2365 2374 2380 2377 2382 2368 2381 2371 2378 2383 2377 2396 2375 2362 2366 2372 2385 2376 2392 2369 2370 2376 2368 2364 2397 2352 8536 8546 8535 8538 8548 8550 8551 8527 8540 8543 8536 8551 8544 8550 8524 8540 8543 8541 8539 8532 8534 8542 8539 8538 8534 8552 8526 8537 8513 8549 4339 4338 4377 4363 4357 4362 4348 4341 4346 4328 4346 4359 4353 4358 4349 4348 4343 4349 4350 4338 4348 4350 4363 4352 4335 4354 4353 4364 4367 4336 2789 2794 2790 2790 2789 2784 2803 2801 2788 2794 2786 2766 2797 2786 2787 2790 2784 2786 2794 2794 2781 2780 2785 2784 2785 2791 2796 2790 2784 2778
5 6 10 16 11 2374 2369 2355 2382 2360 2368 2374 2371 2376 2362 2375 2365 2372 2377 2371 2390 2369 2356 2360 2366 2379 2370 2386 2364 2364 2370 2362 2358 2391 2346 8519 8529 8518 8520 8531 8532 8533 8510 8523 8526 8519 8533 8527 8533 8507 8523 8526 8523 8521 8515 8517 8525 8521 8521 8517 8535 8508 8520 8496 8532 4328 4328 4366 4352 4346 4351 4337 4330 4335 4318 4335 4348 4342 4348 4338 4337 4332 4339 4339 4327 4338 4339 4352 4341 4325 4343 4342 4353 4357 4325 2772 2777 2773 2773 2772 2767 2786 2784 2771 2777 2769 2749 2780 2768 2770 2772 2767 2769 2777 2777 2764 2763 2768 2767 2768 2774 2779 2773 2766 2761
6 5 20 10 2372 2367 2353 2380 2357 2366 2372 2369 2374 2360 2373 2363 2370 2375 2369 2388 2367 2354 2358 2364 2377 2368 2384 2361 2362 2368 2360 2356 2389 2344 8523 8533 8522 8524 8535 8536 8537 8514 8527 8530 8522 8537 8531 8537 8511 8527 8530 8527 8525 8518 8521 8528 8525 8525 8521 8539 8512 8524 8500 8536 4328 4327 4366 4352 4346 4351 4337 4329 4335 4317 4335 4348 4342 4347 4338 4337 4332 4338 4339 4327 4337 4339 4352 4340 4324 4343 4341 4353 4356 4324 2776 2781 2777 2777 2776 2772 2790 2788 2775 2781 2774 2753 2784 2773 2774 2777 2771 2773 2781 2781 2768 2767 2772 2771 2773 2778 2783 2777 2771 2765
11 23 16 2368 2363 2348 2376 2353 2362 2368 2365 2370 2356 2369 2359 2366 2371 2365 2384 2363 2350 2354 2360 2373 2364 2380 2357 2358 2364 2356 2352 2385 2340 8517 8527 8516 8519 8529 8531 8532 8508 8521 8524 8517 8532 8525 8532 8505 8521 8525 8522 8520 8513 8515 8523 8520 8519 8516 8533 8507 8518 8494 8531 4322 4322 4361 4346 4340 4346 4332 4324 4330 4312 4330 4342 4337 4342 4333 4332 4327 4333 4334 4322 4332 4334 4346 4335 4319 4338 4336 4347 4351 4319 2771 2776 2772 2772 2771 2767 2785 2783 2770 2776 2769 2748 2779 2768 2769 2772 2766 2768 2776 2776 2763 2762 2767 2766 2768 2773 2778 2772 2766 2760
22 9 2373 2367 2353 2381 2358 2367 2373 2370 2375 2361 2373 2363 2371 2375 2369 2389 2368 2355 2359 2365 2378 2369 2385 2362 2363 2369 2360 2357 2390 2344 8528 8538 8527 8529 8540 8541 8542 8519 8532 8535 8527 8542 8536 8542 8516 8532 8535 8532 8530 8524 8526 8534 8530 8530 8526 8544 8517 8529 8505 8541 4330 4330 4368 4354 4348 4353 4339 4332 4337 4319 4337 4350 4344 4349 4340 4339 4334 4341 4341 4329 4340 4341 4354 4343 4327 4345 4344 4355 4358 4327 2782 2786 2783 2782 2781 2777 2795 2793 2780 2786 2779 2758 2789 2778 2779 2782 2776 2779 2786 2786 2773 2772 2777 2776 2778 2783 2788 2782 2776 2770
14 2390 2385 2371 2399 2376 2384 2391 2388 2392 2378 2391 2381 2388 2393 2387 2407 2385 2372 2377 2382 2395 2386 2402 2380 2381 2387 2378 2374 2407 2362 8521 8531 8520 8523 8533 8535 8536 8512 8525 8528 8521 8536 8529 8535 8509 8525 8528 8526 8524 8517 8519 8527 8524 8523 8519 8537 8511 8522 8498 8534 4342 4342 4381 4366 4361 4366 4352 4344 4350 4332 4350 4362 4357 4362 4353 4352 4347 4353 4354 4342 4352 4354 4366 4355 4339 4358 4356 4367 4371 4339 2772 2777 2773 2773 2772 2767 2786 2784 2771 2777 2769 2749 2780 2769 2770 2773 2767 2769 2777 2777 2764 2763 2768 2767 2769 2774 2779 2773 2767 2761
2382 2376 2362 2390 2367 2376 2382 2379 2384 2369 2382 2372 2379 2384 2378 2398 2376 2364 2368 2374 2387 2378 2394 2371 2372 2378 2369 2366 2399 2353 8529 8539 8528 8531 8541 8543 8544 8520 8533 8536 8529 8544 8537 8543 8517 8533 8536 8534 8531 8525 8527 8535 8532 8531 8527 8545 8519 8530 8506 8542 4338 4338 4376 4362 4356 4361 4347 4340 4345 4327 4345 4358 4352 4357 4348 4347 4342 4349 4349 4337 4347 4349 4362 4351 4334 4353 4352 4363 4366 4335 2782 2787 2783 2782 2781 2777 2795 2793 2781 2786 2779 2758 2789 2778 2780 2782 2776 2779 2786 2787 2773 2772 2777 2776 2778 2784 2788 2783 2776 2770
12 20 10 16 14 12 3 9 20 13 10 10 10 4 20 6 18 16 12 13 15 16 11 14 5 13 17 17 29 8065 8073 8061 8064 8073 8074 8075 8056 8065 8066 8062 8074 8066 8077 8052 8068 8074 8063 8065 8055 8054 8068 8064 8063 8064 8077 8050 8061 8043 8071 2213 2208 2250 2236 2224 2233 2209 2213 2218 2199 2220 2229 2225 2231 2221 2219 2213 2221 2223 2211 2223 2218 2238 2220 2208 2229 2223 2236 2233 2209 3274 3271 3266 3278 3267 3275 3291 3276 3270 3266 3274 3278 3280 3263 3283 3265 3271 3276 3272 3284 3273 3265 3268 3274 3256 3276 3278 3270 3257 3263
20 14 10 1 23 13 8 27 7 12 4 8 11 31 8 17 9 4 11 25 17 11 4 8 10 13 26 27 8076 8084 8072 8075 8084 8086 8086 8067 8076 8077 8073 8085 8077 8088 8063 8079 8085 8074 8076 8067 8065 8079 8075 8074 8075 8089 8061 8072 8054 8082 2224 2219 2261 2247 2235 2244 2221 2224 2230 2210 2231 2240 2236 2242 2232 2230 2224 2232 2234 2222 2235 2230 2249 2231 2219 2240 2234 2248 2245 2220 3279 3277 3272 3284 3273 3281 3297 3282 3276 3272 3280 3284 3286 3269 3289 3271 3276 3282 3278 3290 3279 3271 3274 3280 3262 3282 3284 3276 3263 3269
29 10 20 22 17 24 14 26 10 21 25 16 37 15 2 12 16 29 19 34 10 16 17 10 7 36 9 8063 8071 8060 8062 8071 8073 8073 8055 8064 8064 8060 8072 8065 8076 8050 8067 8072 8061 8064 8054 8052 8067 8062 8061 8063 8076 8048 8059 8041 8069 2227 2222 2263 2250 2238 2247 2223 2227 2232 2213 2234 2243 2239 2245 2235 2233 2227 2235 2237 2225 2237 2232 2252 2234 2222 2242 2237 2250 2247 2223 3260 3258 3253 3265 3254 3262 3278 3263 3257 3253 3261 3265 3267 3250 3270 3252 3257 3263 3259 3271 3260 3252 3255 3261 3243 3263 3265 3257 3244 3250
23 15 20 13 7 30 10 19 11 7 13 20 14 27 22 17 7 24 6 20 18 12 21 25 13 38 8071 8079 8067 8070 8079 8080 8081 8062 8071 8072 8068 8080 8072 8083 8058 8074 8080 8069 8071 8061 8060 8074 8070 8069 8070 8084 8056 8067 8049 8077 2211 2205 2247 2234 2221 2230 2207 2211 2216 2196 2217 2226 2223 2229 2219 2217 2210 2218 2221 2209 2221 2216 2236 2218 2206 2226 2220 2234 2231 2207 3283 3281 3276 3288 3277 3285 3300 3286 3280 3276 3284 3288 3290 3273 3293 3275 3280 3286 3281 3294 3283 3275 3278 3284 3266 3286 3288 3280 3267 3273
11 23 14 17 21 17 8 13 18 12 35 10 7 2 7 21 23 27 6 6 11 3 2 33 17 8071 8079 8068 8070 8079 8081 8081 8063 8072 8073 8068 8080 8073 8084 8058 8075 8080 8069 8072 8062 8061 8075 8070 8070 8071 8084 8056 8067 8049 8077 2228 2223 2265 2251 2239 2248 2225 2228 2234 2214 2235 2244 2240 2246 2236 2234 2228 2236 2238 2226 2238 2234 2253 2235 2223 2244 2238 2252 2249 2224 3270 3268 3263 3274 3264 3272 3287 3273 3267 3263 3271 3275 3276 3259 3280 3261 3267 3273 3268 3280 3270 3262 3264 3271 3253 3273 3274 3267 3254 3260
25 14 9 28 7 13 5 9 12 32 9 18 9 4 11 27 18 12 4 9 11 13 27 27 8077 8085 8074 8076 8085 8087 8087 8069 8078 8078 8074 8086 8079 8090 8064 8081 8086 8075 8078 8068 8066 8081 8076 8075 8077 8090 8062 8073 8055 8083 2226 2220 2262 2248 2236 2245 2222 2226 2231 2211 2232 2241 2237 2243 2233 2231 2225 2233 2235 2224 2236 2231 2250 2232 2221 2241 2235 2249 2246 2222 3280 3278 3273 3284 3274 3282 3297 3283 3277 3273 3281 3285 3287 3270 3290 3271 3277 3283 3278 3290 3280 3272 3275 3281 3263 3283 3284 3277 3264 3270
11 20 13 25 15 21 21 12 16 15 21 24 22 24 5 25 17 23 15 20 23 19 30 8053 8061 8050 8052 8061 8063 8063 8045 8054 8054 8050 8062 8055 8066 8040 8057 8062 8051 8054 8044 8042 8057 8052 8051 8053 8066 8038 8049 8031 8059 2206 2200 2242 2229 2216 2226 2202 2206 2211 2191 2213 2222 2218 2224 2214 2212 2206 2214 2216 2204 2216 2211 2231 2213 2201 2221 2216 2229 2226 2202 3264 3262 3257 3268 3258 3266 3281 3267 3261 3257 3265 3269 3270 3253 3274 3255 3261 3267 3262 3274 3264 3256 3258 3265 3246 3267 3268 3261 3248 3254
11 17 15 7 11 12 2 21 5 15 14 11 16 13 19 8 13 5 11 14 20 26 8063 8071 8060 8063 8072 8073 8073 8055 8064 8065 8060 8072 8065 8076 8050 8067 8073 8061 8064 8054 8053 8067 8063 8062 8063 8076 8049 8060 8042 8070 2215 2209 2251 2237 2225 2234 2211 2215 2220 2200 2221 2230 2226 2232 2222 2220 2214 2222 2224 2213 2225 2220 2239 2221 2210 2230 2224 2238 2235 2211 3271 3269 3264 3275 3265 3272 3288 3273 3268 3264 3272 3275 3277 3260 3281 3262 3268 3274 3269 3281 3271 3263 3265 3271 3253 3274 3275 3268 3255 3260
28 5 14 4 1 10 25 9 22 16 10 5 24 10 15 12 8 15 19 19 33 8073 8081 8070 8072 8081 8083 8083 8065 8074 8074 8070 8082 8075 8086 8060 8077 8082 8071 8074 8064 8062 8077 8072 8071 8073 8086 8058 8069 8051 8079 2217 2212 2253 2240 2227 2237 2213 2217 2222 2203 2224 2233 2229 2235 2225 2223 2217 2225 2227 2215 2227 2222 2242 2224 2212 2232 2227 2240 2237 2213 3282 3280 3275 3286 3275 3283 3299 3284 3278 3275 3282 3286 3288 3271 3291 3273 3279 3284 3280 3292 3282 3274 3276 3282 3264 3284 3286 3278 3266 3271
31 16 27 29 18 29 19 15 23 24 33 8 36 16 25 21 19 20 32 20 8050 8058 8047 8049 8058 8060 8060 8042 8051 8051 8047 8059 8052 8063 8037 8054 8059 8048 8051 8041 8039 8054 8049 8048 8050 8063 8035 8046 8028 8056 2214 2208 2250 2236 2224 2233 2210 2214 2219 2199 2220 2229 2226 2232 2221 2219 2213 2221 2223 2212 2224 2219 2238 2221 2209 2229 2223 2237 2234 2210 3254 3252 3247 3258 3248 3255 3271 3257 3251 3247 3255 3258 3260 3243 3264 3245 3251 3257 3252 3264 3254 3246 3248 3255 3236 3257 3258 3251 3238 3243
17 5 4 14 29 12 23 15 10 4 28 12 17 11 11 16 19 23 34 8078 8086 8074 8077 8086 8088 8088 8069 8078 8079 8075 8087 8079 8090 8065 8081 8087 8076 8078 8069 8067 8081 8077 8076 8078 8091 8063 8074 8056 8084 2221 2216 2257 2244 2231 2241 2217 2221 2226 2207 2228 2237 2233 2239 2229 2227 2221 2229 2231 2219 2231 2226 2246 2228 2216 2237 2231 2244 2241 2217 3285 3283 3278 3289 3279 3286 3302 3288 3282 3278 3286 3289 3291 3274 3295 3276 3282 3288 3283 3295 3285 3277 3279 3285 3267 3288 3289 3282 3269 3274
12 15 6 28 5 9 9 8 19 15 24 2 10 7 5 8 26 19 8065 8073 8062 8064 8073 8075 8075 8057 8066 8067 8062 8074 8067 8078 8052 8069 8074 8063 8066 8056 8054 8069 8064 8064 8065 8078 8050 8061 8043 8071 2221 2215 2257 2243 2231 2240 2217 2221 2226 2206 2227 2236 2233 2239 2229 2227 2220 2228 2231 2219 2231 2226 2245 2228 2216 2236 2230 2244 2241 2217 3268 3266 3261 3272 3262 3270 3285 3271 3265 3261 3269 3273 3274 3257 3278 3259 3265 3271 3266 3278 3268 3260 3263 3269 3251 3271 3272 3265 3252 3258
5 9 28 7 19 12 6 8 24 14 12 7 6 12 15 23 29 8074 8082 8071 8073 8082 8084 8084 8066 8075 8075 8071 8083 8076 8087 8061 8078 8083 8072 8075 8065 8063 8078 8073 8072 8074 8087 8059 8070 8052 8080 2221 2215 2257 2244 2231 2240 2217 2221 2226 2206 2228 2236 2233 2239 2229 2227 2220 2229 2231 2219 2231 2226 2246 2228 2216 2236 2231 2244 2241 2217 3280 3278 3273 3284 3274 3282 3297 3283 3277 3273 3281 3284 3286 3269 3290 3271 3277 3283 3278 3290 3280 3272 3274 3281 3262 3283 3284 3277 3264 3269
11 25 10 23 16 11 4 25 10 16 12 9 16 20 19 34 8074 8082 8071 8073 8082 8084 8084 8066 8075 8075 8071 8083 8076 8087 8061 8078 8083 8072 8075 8065 8063 8078 8073 8072 8074 8087 8059 8070 8052 8080 2217 2212 2254 2240 2228 2237 2213 2217 2223 2203 2224 2233 2229 2235 2225 2223 2217 2225 2227 2215 2227 2223 2242 2224 2212 2233 2227 2240 2237 2213 3283 3281 3276 3287 3277 3284 3300 3285 3280 3276 3284 3287 3289 3272 3293 3274 3280 3286 3281 3293 3283 3275 3277 3283 3265 3286 3287 3280 3267 3272
23 3 15 13 9 15 15 19 7 11 3 10 13 21 25 8065 8073 8062 8064 8073 8075 8075 8057 8066 8067 8062 8074 8067 8078 8052 8069 8074 8063 8066 8056 8055 8069 8064 8064 8065 8078 8050 8061 8043 8071 2216 2211 2253 2239 2227 2236 2212 2216 2221 2202 2223 2232 2228 2234 2224 2222 2216 2224 2226 2214 2226 2222 2241 2223 2211 2232 2226 2239 2236 2212 3272 3270 3265 3276 3266 3273 3289 3274 3269 3265 3273 3276 3278 3261 3282 3263 3269 3275 3270 3282 3272 3264 3266 3272 3254 3275 3276 3269 3256 3261
26 36 36 31 26 21 23 30 33 25 32 36 9 45 8052 8060 8049 8051 8061 8062 8062 8044 8053 8054 8049 8061 8054 8065 8039 8056 8062 8050 8053 8043 8042 8056 8051 8051 8052 8065 8038 8049 8030 8059 2194 2188 2230 2216 2204 2213 2190 2194 2199 2179 2200 2209 2205 2211 2201 2199 2193 2201 2203 2191 2204 2199 2218 2200 2189 2209 2203 2217 2214 2189 3273 3271 3266 3277 3267 3275 3290 3276 3270 3266 3274 3278 3279 3262 3283 3264 3270 3276 3271 3283 3273 3265 3267 3274 3255 3276 3277 3270 3257 3263
13 10 6 14 17 19 6 8 2 7 11 23 24 8068 8076 8064 8067 8076 8077 8078 8059 8068 8069 8065 8077 8069 8080 8055 8071 8077 8066 8068 8058 8057 8071 8067 8066 8067 8081 8053 8064 8046 8074 2219 2214 2255 2242 2230 2239 2215 2219 2224 2205 2226 2235 2231 2237 2227 2225 2219 2227 2229 2217 2229 2224 2244 2226 2214 2234 2229 2242 2239 2215 3273 3271 3266 3277 3267 3274 3290 3275 3270 3266 3274 3277 3279 3262 3282 3264 3270 3276 3271 3283 3273 3265 3267 3273 3255 3276 3277 3270 3257 3262
9 13 26 19 32 8 13 15 7 5 35 11 8065 8073 8061 8064 8073 8074 8075 8056 8065 8066 8062 8074 8066 8077 8052 8068 8074 8063 8065 8056 8054 8068 8064 8063 8064 8078 8050 8061 8043 8071 2227 2221 2263 2250 2237 2246 2223 2227 2232 2212 2233 2242 2239 2245 2235 2233 2226 2235 2237 2225 2237 2232 2252 2234 2222 2242 2237 2250 2247 2223 3263 3261 3256 3267 3257 3264 3280 3265 3259 3256 3264 3267 3269 3252 3272 3254 3260 3266 3261 3273 3263 3255 3257 3263 3245 3265 3267 3260 3247 3252
6 19 24 26 7 5 11 4 4 32 18 8073 8081 8069 8072 8081 8083 8083 8064 8073 8074 8070 8082 8074 8085 8060 8076 8082 8071 8073 8064 8062 8076 8072 8071 8073 8086 8058 8069 8051 8079 2229 2223 2265 2251 2239 2248 2225 2229 2234 2214 2235 2244 2241 2247 2237 2235 2228 2236 2239 2227 2239 2234 2253 2236 2224 2244 2238 2252 2249 2225 3272 3270 3265 3276 3266 3274 3289 3275 3269 3265 3273 3276 3278 3261 3282 3263 3269 3275 3270 3282 3272 3264 3266 3273 3254 3275 3276 3269 3256 3262
14 23 20 8 2 7 6 9 27 23 8073 8081 8070 8073 8082 8083 8083 8065 8074 8075 8070 8082 8075 8086 8060 8077 8083 8071 8074 8064 8063 8077 8073 8072 8073 8086 8059 8070 8051 8080 2225 2219 2261 2248 2235 2244 2221 2225 2230 2210 2232 2240 2237 2243 2233 2231 2224 2233 2235 2223 2235 2230 2250 2232 2220 2240 2235 2248 2245 2221 3276 3274 3269 3280 3270 3277 3293 3279 3273 3269 3277 3280 3282 3265 3285 3267 3273 3279 3274 3286 3276 3268 3270 3276 3258 3279 3280 3273 3260 3265
28 7 19 15 12 19 23 19 37 8077 8085 8073 8076 8085 8086 8087 8068 8077 8078 8074 8086 8078 8089 8064 8080 8086 8075 8077 8068 8066 8080 8076 8075 8076 8090 8062 8073 8055 8083 2217 2212 2253 2240 2227 2237 2213 2217 2222 2203 2224 2233 2229 2235 2225 2223 2217 2225 2227 2215 2227 2222 2242 2224 2212 2233 2227 2240 2237 2213 3286 3284 3279 3291 3280 3288 3304 3289 3283 3279 3287 3291 3293 3276 3296 3278 3283 3289 3285 3297 3286 3278 3281 3287 3269 3289 3291 3283 3270 3276
30 17 25 18 20 22 24 27 8050 8059 8047 8050 8059 8060 8060 8042 8051 8052 8047 8060 8052 8063 8037 8054 8060 8049 8051 8041 8040 8054 8050 8049 8050 8063 8036 8047 8029 8057 2208 2202 2244 2230 2218 2227 2204 2208 2213 2193 2214 2223 2220 2226 2216 2214 2207 2215 2218 2206 2218 2213 2232 2215 2203 2223 2217 2231 2228 2204 3259 3257 3252 3263 3253 3261 3276 3262 3256 3252 3260 3264 3265 3248 3269 3250 3256 3262 3257 3269 3259 3251 3253 3260 3241 3262 3263 3256 3243 3249
25 22 17 25 29 14 43 8075 8083 8071 8074 8083 8084 8085 8066 8075 8076 8072 8084 8076 8087 8062 8078 8084 8073 8075 8065 8064 8078 8074 8073 8074 8087 8060 8071 8053 8081 2211 2205 2247 2233 2221 2230 2207 2211 2216 2196 2217 2226 2222 2228 2218 2216 2210 2218 2220 2209 2221 2216 2235 2217 2206 2226 2220 2234 2231 2207 3289 3287 3282 3293 3283 3291 3306 3292 3286 3282 3290 3294 3295 3278 3299 3280 3286 3292 3287 3299 3289 3281 3283 3290 3271 3292 3293 3286 3273 3278
9 7 3 6 28 18 8066 8074 8063 8065 8074 8076 8076 8058 8067 8068 8063 8075 8068 8079 8053 8070 8075 8064 8067 8057 8056 8070 8065 8065 8066 8079 8051 8062 8044 8072 2222 2217 2259 2245 2233 2242 2219 2222 2227 2208 2229 2238 2234 2240 2230 2228 2222 2230 2232 2220 2232 2228 2247 2229 2217 2238 2232 2245 2243 2218 3268 3266 3261 3273 3262 3270 3286 3271 3265 3261 3269 3273 3275 3258 3278 3260 3265 3271 3267 3279 3268 3260 3263 3269 3251 3271 3273 3265 3252 3258
9 6 9 29 23 8075 8083 8071 8074 8083 8085 8085 8066 8075 8076 8072 8084 8076 8087 8062 8078 8084 8073 8075 8066 8064 8078 8074 8073 8074 8088 8060 8071 8053 8081 2227 2221 2263 2250 2237 2246 2223 2227 2232 2212 2233 2242 2239 2245 2235 2233 2226 2235 2237 2225 2237 2232 2252 2234 2222 2242 2237 2250 2247 2223 3276 3274 3269 3280 3270 3278 3293 3279 3273 3269 3277 3281 3282 3265 3286 3267 3273 3279 3274 3286 3276 3268 3270 3277 3258 3279 3280 3273 3260 3266
9 13 21 26 8068 8076 8065 8067 8076 8078 8078 8060 8069 8070 8065 8077 8070 8081 8055 8072 8077 8066 8069 8059 8058 8072 8067 8067 8068 8081 8053 8064 8046 8074 2218 2213 2255 2241 2229 2238 2214 2218 2224 2204 2225 2234 2230 2236 2226 2224 2218 2226 2228 2216 2228 2224 2243 2225 2213 2234 2228 2241 2238 2214 3274 3272 3267 3278 3268 3276 3291 3277 3271 3267 3275 3279 3281 3264 3284 3265 3271 3277 3272 3284 3274 3266 3269 3275 3257 3277 3278 3271 3258 3264
4 30 18 8069 8077 8066 8068 8077 8079 8079 8061 8070 8070 8066 8078 8071 8082 8056 8073 8078 8067 8070 8060 8058 8073 8068 8067 8069 8082 8054 8065 8047 8075 2225 2220 2262 2248 2236 2245 2222 2225 2231 2211 2232 2241 2237 2243 2233 2231 2225 2233 2235 2223 2235 2231 2250 2232 2220 2241 2235 2249 2246 2221 3270 3268 3263 3274 3264 3271 3287 3272 3266 3263 3270 3274 3276 3259 3279 3261 3267 3272 3268 3280 3270 3262 3264 3270 3252 3272 3274 3267 3254 3259
34 14 8069 8077 8066 8069 8078 8079 8079 8061 8070 8071 8066 8078 8071 8082 8056 8073 8079 8067 8070 8060 8059 8073 8069 8068 8069 8082 8055 8066 8047 8076 2228 2223 2265 2251 2239 2248 2225 2228 2234 2214 2235 2244 2240 2246 2236 2234 2228 2236 2238 2226 2238 2234 2253 2235 2223 2244 2238 2252 2249 2224 3268 3266 3261 3272 3262 3269 3285 3270 3265 3261 3269 3272 3274 3257 3277 3259 3265 3271 3266 3278 3268 3260 3262 3268 3250 3270 3272 3265 3252 3257
45 8061 8069 8057 8060 8069 8071 8071 8052 8061 8062 8058 8070 8062 8073 8048 8064 8070 8059 8061 8052 8050 8064 8060 8059 8061 8074 8046 8057 8039 8067 2198 2193 2235 2221 2209 2218 2194 2198 2204 2184 2205 2214 2210 2216 2206 2204 2198 2206 2208 2196 2208 2204 2223 2205 2193 2214 2208 2222 2219 2194 3280 3278 3273 3285 3274 3282 3298 3283 3277 3273 3281 3285 3287 3270 3290 3272 3277 3283 3278 3291 3280 3272 3275 3281 3263 3283 3285 3277 3264 3270
8063 8071 8059 8062 8071 8073 8073 8054 8063 8064 8060 8072 8064 8075 8050 8066 8072 8061 8063 8054 8052 8066 8062 8061 8062 8076 8048 8059 8041 8069 2234 2228 2270 2256 2244 2253 2230 2234 2239 2219 2240 2249 2245 2251 2241 2239 2233 2241 2243 2231 2244 2239 2258 2240 2229 2249 2243 2257 2254 2229 3255 3253 3248 3259 3249 3256 3272 3258 3252 3248 3256 3259 3261 3244 3264 3246 3252 3258 3253 3265 3255 3247 3249 3255 3237 3258 3259 3252 3239 3244
12 9 9 18 18 21 9 14 20 10 23 24 15 13 4 11 23 7 20 32 10 13 13 5 19 20 18 23 27 6800 6815 6795 6797 6817 6804 6836 6805 6805 6815 6801 6807 6803 6799 6805 6807 6813 6806 6801 6805 6796 6814 6791 6814 6806 6796 6808 6798 6816 6804 5782 5776 5779 5783 5781 5788 5771 5770 5783 5775 5786 5811 5775 5784 5788 5780 5788 5787 5777 5779 5792 5791 5786 5789 5782 5781 5776 5780 5785 5793
11 9 7 7 10 20 9 14 11 13 17 4 22 7 14 18 8 19 29 5 10 11 16 7 23 15 34 18 6806 6821 6800 6803 6823 6810 6842 6811 6810 6821 6806 6813 6809 6805 6810 6813 6819 6812 6806 6811 6802 6820 6797 6819 6812 6802 6814 6804 6822 6810 5793 5787 5790 5794 5792 5799 5782 5780 5793 5786 5796 5822 5786 5794 5798 5790 5798 5797 5787 5790 5803 5802 5796 5799 5793 5791 5786 5791 5795 5803
3 14 15 17 12 7 13 2 18 16 16 11 9 19 15 4 11 23 7 5 5 14 17 13 9 24 21 6795 6810 6789 6792 6812 6799 6831 6800 6799 6810 6795 6802 6798 6794 6799 6802 6808 6801 6795 6799 6791 6809 6786 6808 6800 6791 6803 6793 6811 6798 5782 5776 5779 5783 5781 5788 5771 5769 5782 5775 5785 5811 5775 5783 5787 5779 5787 5786 5776 5779 5792 5791 5786 5789 5782 5781 5775 5780 5784 5793
11 12 15 14 5 12 2 16 15 13 13 8 18 14 2 12 24 4 4 4 14 15 15 9 26 19 6797 6812 6791 6794 6814 6801 6833 6802 6801 6812 6797 6804 6800 6796 6802 6804 6810 6803 6798 6802 6793 6811 6788 6811 6803 6793 6805 6795 6813 6801 5784 5778 5781 5785 5784 5791 5773 5772 5785 5777 5788 5814 5777 5786 5790 5782 5790 5789 5779 5782 5794 5793 5788 5791 5784 5783 5778 5783 5787 5795
2 3 25 8 8 13 6 10 9 25 14 21 12 12 17 24 8 10 10 22 5 23 12 38 11 6804 6820 6799 6801 6822 6808 6840 6809 6809 6819 6805 6811 6807 6803 6809 6811 6817 6810 6805 6809 6800 6818 6795 6818 6810 6800 6812 6802 6820 6808 5795 5789 5792 5796 5795 5802 5784 5783 5796 5788 5799 5825 5788 5797 5801 5793 5801 5800 5790 5793 5805 5804 5799 5802 5795 5794 5789 5794 5798 5806
4 25 9 10 14 6 12 7 26 14 21 14 12 19 26 9 11 12 22 3 25 14 39 12 6806 6821 6800 6803 6823 6810 6842 6811 6810 6821 6806 6813 6809 6805 6810 6813 6819 6812 6807 6811 6802 6820 6797 6820 6812 6802 6814 6804 6822 6810 5797 5790 5794 5797 5796 5803 5785 5784 5797 5789 5800 5826 5790 5798 5802 5794 5802 5801 5791 5794 5807 5805 5800 5803 5796 5795 5790 5795 5799 5807
28 11 9 16 3 10 11 28 17 24 13 15 19 24 12 12 13 26 6 25 14 41 9 6805 6820 6800 6802 6822 6809 6841 6810 6810 6820 6806 6812 6808 6804 6810 6812 6818 6811 6806 6810 6801 6819 6796 6819 6811 6801 6813 6803 6821 6809 5798 5792 5795 5799 5797 5804 5787 5785 5798 5791 5802 5827 5791 5799 5803 5795 5803 5802 5792 5795 5808 5807 5802 5805 5798 5797 5791 5796 5800 5809
18 25 13 30 28 24 7 13 18 26 13 20 33 17 17 17 9 27 17 20 14 33 6793 6808 6787 6789 6810 6797 6829 6797 6797 6808 6793 6800 6796 6792 6797 6800 6805 6798 6793 6797 6788 6807 6783 6806 6798 6788 6801 6790 6809 6796 5773 5767 5771 5774 5773 5780 5762 5761 5774 5766 5777 5803 5766 5775 5779 5771 5779 5778 5768 5771 5783 5782 5777 5780 5773 5772 5767 5772 5776 5784
7 5 12 10 13 17 11 21 10 6 10 20 5 2 2 18 12 15 6 31 14 6798 6813 6792 6794 6815 6802 6833 6802 6802 6812 6798 6805 6800 6796 6802 6805 6810 6803 6798 6802 6793 6812 6788 6811 6803 6793 6805 6795 6813 6801 5787 5781 5784 5788 5787 5794 5776 5775 5788 5780 5791 5817 5780 5789 5793 5785 5793 5792 5782 5785 5797 5796 5791 5794 5787 5786 5781 5786 5790 5798
11 8 4 16 22 18 27 4 13 11 16 11 8 8 25 13 17 6 36 8 6797 6812 6791 6793 6814 6801 6833 6801 6801 6812 6797 6804 6800 6796 6801 6804 6809 6802 6797 6801 6792 6811 6787 6810 6802 6792 6805 6794 6812 6800 5790 5784 5787 5791 5790 5797 5779 5778 5791 5783 5794 5820 5783 5792 5796 5788 5796 5795 5785 5788 5800 5799 5794 5797 5790 5789 5784 5789 5793 5801
17 15 16 12 10 20 13 4 10 22 7 4 3 15 16 12 8 25 19 6795 6810 6789 6792 6812 6799 6831 6800 6799 6810 6795 6802 6798 6794 6799 6802 6808 6801 6795 6800 6791 6809 6786 6808 6801 6791 6803 6793 6811 6799 5783 5777 5780 5784 5782 5789 5772 5770 5783 5776 5786 5812 5776 5784 5788 5780 5788 5787 5777 5780 5793 5792 5787 5790 5783 5782 5776 5781 5785 5794
8 14 29 20 27 11 17 19 22 14 13 14 28 9 25 13 42 6 6804 6819 6798 6800 6821 6808 6840 6809 6808 6819 6804 6811 6807 6803 6808 6811 6816 6809 6804 6808 6799 6818 6795 6817 6809 6799 6812 6802 6820 6807 5798 5792 5795 5799 5797 5804 5787 5785 5798 5791 5802 5827 5791 5799 5803 5795 5804 5802 5792 5795 5808 5807 5802 5805 5798 5797 5791 5796 5801 5809
19 25 21 30 4 17 13 14 15 11 12 29 15 19 8 39 6 6796 6811 6790 6793 6813 6800 6832 6801 6800 6811 6796 6803 6799 6795 6800 6803 6809 6802 6796 6800 6792 6810 6787 6809 6801 6792 6804 6794 6812 6799 5792 5786 5789 5793 5791 5798 5781 5779 5792 5785 5795 5821 5785 5793 5797 5789 5797 5796 5786 5789 5802 5801 5795 5799 5792 5791 5785 5790 5794 5803
26 11 14 21 12 24 32 9 14 15 18 6 28 19 38 20 6810 6826 6805 6807 6828 6815 6846 6815 6815 6825 6811 6817 6813 6809 6815 6817 6823 6816 6811 6815 6806 6825 6801 6824 6816 6806 6818 6808 6826 6814 5797 5791 5794 5798 5796 5803 5786 5784 5797 5790 5800 5826 5790 5798 5802 5794 5802 5801 5791 5794 5807 5806 5801 5804 5797 5796 5790 5795 5799 5808
17 24 23 14 15 28 18 16 15 15 28 11 17 14 30 6787 6802 6781 6783 6804 6791 6823 6792 6791 6802 6787 6794 6790 6786 6791 6794 6799 6792 6787 6791 6782 6801 6778 6800 6792 6782 6795 6785 6803 6790 5771 5765 5768 5772 5770 5777 5760 5758 5771 5764 5775 5800 5764 5773 5776 5768 5777 5775 5765 5768 5781 5780 5775 5778 5771 5770 5764 5769 5774 5782
10 21 6 19 31 6 11 11 8 15 22 17 27 24 6803 6818 6797 6800 6820 6807 6839 6808 6807 6818 6803 6810 6806 6802 6807 6810 6816 6809 6804 6808 6799 6817 6794 6817 6809 6799 6811 6801 6819 6807 5786 5780 5783 5787 5786 5793 5775 5774 5787 5779 5790 5816 5779 5788 5792 5784 5792 5791 5781 5784 5796 5795 5790 5793 5786 5785 5780 5785 5789 5797
30 15 29 41 16 21 21 10 20 31 26 31 32 6811 6826 6805 6807 6828 6815 6847 6815 6815 6825 6811 6818 6813 6809 6815 6818 6823 6816 6811 6815 6806 6825 6801 6824 6816 6806 6819 6808 6826 6814 5789 5783 5786 5790 5788 5795 5778 5777 5790 5782 5793 5818 5782 5791 5794 5787 5795 5793 5784 5786 5799 5798 5793 5796 5789 5788 5783 5787 5792 5800
16 9 12 15 10 10 28 17 16 6 36 9 6793 6808 6787 6789 6810 6797 6829 6798 6797 6808 6793 6800 6796 6792 6797 6800 6805 6798 6793 6797 6788 6807 6783 6806 6798 6788 6801 6791 6809 6796 5788 5782 5785 5789 5787 5794 5777 5776 5789 5781 5792 5817 5781 5790 5794 5786 5794 5793 5783 5785 5798 5797 5792 5795 5788 5787 5782 5786 5791 5799
14 26 4 6 6 12 14 17 11 27 20 6799 6814 6793 6796 6816 6803 6835 6804 6803 6814 6799 6806 6802 6798 6803 6806 6812 6805 6799 6804 6795 6813 6790 6812 6805 6795 6807 6797 6815 6803 5785 5779 5782 5786 5784 5791 5774 5773 5786 5778 5789 5814 5778 5787 5790 5783 5791 5789 5780 5782 5795 5794 5789 5792 5785 5784 5779 5783 5788 5796
14 15 10 9 24 22 7 5 27 18 6787 6802 6781 6784 6804 6791 6823 6792 6791 6802 6787 6794 6790 6786 6791 6794 6800 6793 6788 6792 6783 6801 6778 6801 6793 6783 6795 6785 6803 6791 5779 5773 5776 5780 5779 5786 5768 5767 5780 5772 5783 5809 5772 5781 5785 5777 5785 5784 5774 5777 5789 5788 5783 5786 5779 5778 5773 5778 5782 5790
26 20 20 37 29 17 15 39 17 6783 6798 6777 6779 6800 6787 6818 6787 6787 6797 6783 6789 6785 6781 6787 6789 6795 6788 6783 6787 6778 6797 6773 6796 6788 6778 6790 6780 6798 6786 5783 5776 5780 5783 5782 5789 5772 5770 5783 5775 5786 5812 5776 5784 5788 5780 5788 5787 5777 5780 5793 5792 5786 5789 5782 5781 5776 5781 5785 5793
6 6 14 10 19 11 30 18 6802 6817 6796 6798 6819 6806 6837 6806 6806 6816 6802 6809 6804 6800 6806 6809 6814 6807 6802 6806 6797 6816 6792 6815 6807 6797 6810 6799 6817 6805 5789 5782 5786 5789 5788 5795 5778 5776 5789 5782 5792 5818 5782 5790 5794 5786 5794 5793 5783 5786 5799 5798 5792 5795 5788 5787 5782 5787 5791 5799
1 18 14 14 6 29 16 6796 6812 6791 6793 6814 6801 6832 6801 6801 6811 6797 6803 6799 6795 6801 6803 6809 6802 6797 6801 6792 6811 6787 6810 6802 6792 6804 6794 6812 6800 5786 5780 5783 5787 5785 5792 5775 5773 5786 5779 5789 5815 5779 5787 5791 5783 5791 5790 5780 5783 5796 5795 5789 5793 5786 5785 5779 5784 5788 5797
18 15 13 5 28 16 6796 6811 6790 6792 6813 6800 6832 6800 6800 6811 6796 6803 6798 6795 6800 6803 6808 6801 6796 6800 6791 6810 6786 6809 6801 6791 6804 6793 6811 6799 5785 5779 5782 5786 5784 5791 5774 5773 5786 5778 5789 5814 5778 5787 5790 5782 5791 5789 5780 5782 5795 5794 5789 5792 5785 5784 5779 5783 5788 5796
23 24 23 22 32 6801 6816 6795 6798 6818 6805 6837 6806 6805 6816 6801 6808 6804 6800 6806 6808 6814 6807 6802 6806 6797 6815 6792 6815 6807 6797 6809 6799 6817 6805 5780 5774 5777 5781 5780 5787 5769 5768 5781 5773 5784 5809 5773 5782 5786 5778 5786 5785 5775 5778 5790 5789 5784 5787 5780 5779 5774 5779 5783 5791
28 17 41 15 6809 6825 6804 6806 6827 6814 6845 6814 6814 6824 6810 6816 6812 6808 6814 6816 6822 6815 6810 6814 6805 6824 6800 6823 6815 6805 6817 6807 6825 6813 5799 5793 5796 5800 5798 5805 5788 5787 5800 5792 5803 5828 5792 5801 5804 5796 5805 5803 5794 5796 5809 5808 5803 5806 5799 5798 5793 5797 5802 5810
12 22 25 6783 6798 6777 6779 6800 6787 6819 6787 6787 6797 6783 6790 6785 6781 6787 6790 6795 6788 6783 6787 6778 6797 6773 6796 6788 6778 6791 6780 6798 6786 5773 5767 5770 5774 5772 5779 5762 5760 5773 5766 5777 5802 5766 5774 5778 5770 5778 5777 5767 5770 5783 5782 5777 5780 5773 5772 5766 5771 5776 5784
31 14 6792 6808 6787 6789 6810 6796 6828 6797 6797 6807 6793 6799 6795 6791 6797 6799 6805 6798 6793 6797 6788 6806 6783 6806 6798 6788 6800 6790 6808 6796 5785 5778 5782 5785 5784 5791 5774 5772 5785 5777 5788 5814 5778 5786 5790 5782 5790 5789 5779 5782 5795 5794 5788 5791 5784 5783 5778 5783 5787 5795
44 6781 6796 6775 6778 6798 6785 6817 6786 6785 6796 6781 6788 6784 6780 6785 6788 6793 6786 6781 6785 6776 6795 6772 6794 6786 6776 6789 6779 6797 6784 5759 5753 5756 5760 5758 5765 5748 5747 5760 5752 5763 5788 5752 5761 5765 5757 5765 5764 5754 5756 5769 5768 5763 5766 5759 5758 5753 5757 5762 5770
6800 6815 6794 6796 6817 6804 6836 6805 6804 6815 6800 6807 6803 6799 6804 6807 6812 6805 6800 6804 6795 6814 6791 6813 6805 6795 6808 6798 6816 6803 5797 5791 5794 5798 5796 5803 5786 5785 5798 5790 5801 5826 5790 5799 5803 5795 5803 5802 5792 5794 5807 5806 5801 5804 5797 5796 5791 5795 5800 5808
15 38 24 27 24 39 5 9 17 7 22 15 20 12 12 14 13 11 5 10 19 25 20 6 16 17 25 35 5 3793 3786 3782 3799 3785 3799 3806 3788 3790 3780 3797 3819 3796 3781 3808 3781 3793 3800 3787 3803 3800 3790 3789 3799 3772 3796 3794 3788 3776 3788
42 29 19 25 24 10 13 10 16 21 18 24 14 12 5 14 18 11 21 12 32 13 11 24 15 29 29 12 3802 3796 3792 3808 3794 3809 3815 3797 3799 3789 3806 3828 3805 3791 3818 3790 3803 3809 3796 3813 3809 3799 3798 3808 3781 3805 3803 3797 3785 3797
14 29 17 48 37 31 51 31 21 25 19 29 31 37 29 27 39 29 32 15 30 42 23 27 13 23 42 3822 3815 3812 3828 3814 3828 3835 3817 3819 3809 3826 3848 3825 3810 3838 3810 3823 3829 3816 3832 3829 3819 3818 3828 3801 3825 3823 3817 3805 3817
21 7 41 23 17 37 17 11 11 5 15 17 24 15 13 25 15 20 6 19 28 9 14 2 20 27 3812 3805 3801 3817 3804 3818 3824 3806 3808 3798 3815 3837 3814 3800 3827 3799 3812 3818 3805 3822 3818 3808 3807 3817 3790 3814 3812 3806 3794 3807
14 20 22 18 29 21 10 15 18 16 14 15 15 19 24 24 8 27 7 26 22 11 20 10 27 3820 3813 3809 3825 3812 3826 3832 3814 3816 3806 3823 3845 3822 3808 3835 3807 3820 3826 3813 3830 3826 3816 3815 3825 3798 3822 3820 3814 3802 3814
33 22 16 34 17 4 9 7 13 14 20 13 13 24 17 15 13 13 27 13 10 6 13 27 3816 3809 3805 3821 3808 3822 3828 3810 3812 3802 3819 3841 3818 3804 3831 3803 3816 3822 3810 3826 3823 3812 3812 3821 3794 3818 3816 3811 3798 3811
33 32 31 36 30 33 37 32 29 25 30 36 34 41 22 46 23 35 40 28 40 26 36 3824 3817 3813 3829 3816 3830 3837 3818 3820 3811 3827 3849 3827 3812 3839 3812 3824 3830 3818 3834 3831 3820 3820 3829 3803 3826 3825 3819 3807 3819
6 15 7 19 12 18 9 8 9 9 10 2 11 14 25 15 5 15 13 23 30 5 3798 3791 3787 3803 3790 3804 3810 3792 3794 3784 3801 3823 3800 3786 3813 3785 3798 3804 3791 3808 3805 3794 3793 3803 3776 3800 3798 3793 3780 3793
20 4 13 7 13 3 3 9 4 5 8 9 11 20 11 11 11 8 18 26 11 3802 3795 3791 3808 3794 3808 3815 3797 3799 3789 3806 3828 3805 3790 3817 3790 3802 3809 3796 3812 3809 3799 3798 3808 3781 3805 3803 3797 3785 3797
22 31 26 32 22 20 15 22 25 13 26 22 40 23 11 30 25 38 39 13 3794 3787 3783 3799 3786 3800 3806 3788 3790 3780 3797 3819 3796 3782 3809 3781 3794 3800 3787 3804 3800 3790 3789 3799 3772 3796 3794 3789 3776 3788
15 8 12 5 7 12 7 4 9 5 15 18 15 12 9 11 18 28 11 3800 3793 3789 3805 3792 3806 3812 3794 3796 3786 3803 3825 3802 3788 3815 3787 3800 3806 3793 3810 3806 3796 3795 3805 3778 3802 3800 3795 3782 3795
7 8 10 11 16 10 12 21 16 11 16 9 24 13 6 10 13 24 3815 3808 3804 3820 3807 3821 3827 3809 3811 3801 3818 3840 3817 3803 3830 3802 3815 3821 3808 3825 3822 3811 3810 3820 3793 3817 3815 3810 3797 3810
6 4 6 13 4 4 15 9 11 15 11 18 7 5 11 21 18 3807 3800 3797 3813 3799 3813 3820 3802 3804 3794 3811 3833 3810 3795 3822 3795 3807 3814 3801 3817 3814 3804 3803 3813 3786 3810 3808 3802 3790 3802
10 12 19 11 8 20 11 16 9 15 23 6 10 5 20 23 3809 3802 3798 3815 3801 3815 3822 3804 3806 3796 3813 3835 3812 3797 3824 3797 3809 3816 3803 3819 3816 3806 3805 3815 3788 3812 3810 3804 3792 3804
3 10 1 4 11 9 10 18 10 14 10 5 15 23 14 3805 3798 3794 3810 3797 3811 3817 3799 3801 3791 3808 3830 3807 3793 3820 3792 3805 3811 3799 3815 3812 3801 3801 3810 3783 3807 3805 3800 3787 3800
7 2 7 10 11 8 21 8 13 12 5 17 22 13 3805 3799 3795 3811 3797 3812 3818 3800 3802 3792 3809 3831 3808 3794 3821 3793 3806 3812 3799 3816 3812 3802 3801 3811 3784 3808 3806 3800 3788 3800
9 13 10 17 7 28 9 11 19 10 24 25 13 3805 3798 3794 3810 3797 3811 3818 3799 3801 3791 3808 3830 3807 3793 3820 3792 3805 3811 3799 3815 3812 3801 3801 3810 3783 3807 3805 3800 3787 3800
5 11 10 9 19 8 14 11 4 16 22 14 3806 3799 3795 3811 3798 3812 3818 3800 3802 3792 3809 3831 3808 3794 3821 3793 3806 3812 3800 3816 3813 3802 3802 3811 3784 3808 3806 3801 3788 3801
12 5 14 15 13 15 6 8 14 25 14 3803 3796 3792 3808 3795 3809 3816 3797 3799 3789 3806 3829 3806 3791 3818 3791 3803 3809 3797 3813 3810 3799 3799 3808 3782 3805 3803 3798 3785 3798
13 16 27 17 3 17 15 26 33 3 3796 3789 3785 3801 3788 3802 3808 3790 3792 3782 3799 3821 3798 3784 3811 3783 3796 3802 3789 3806 3802 3792 3791 3801 3774 3798 3796 3790 3778 3790
19 15 19 15 6 14 16 30 14 3799 3792 3788 3804 3791 3805 3811 3793 3795 3785 3802 3824 3801 3787 3814 3786 3799 3805 3792 3809 3805 3795 3794 3804 3777 3801 3799 3793 3781 3793
25 2 18 19 6 20 18 19 3812 3805 3801 3817 3804 3818 3824 3806 3808 3798 3815 3837 3814 3800 3827 3799 3812 3818 3806 3822 3819 3808 3808 3817 3790 3814 3812 3807 3794 3807
24 30 9 19 7 26 29 3808 3801 3797 3813 3800 3814 3820 3802 3804 3794 3811 3834 3810 3796 3823 3795 3808 3814 3802 3818 3815 3804 3804 3813 3786 3810 3808 3803 3790 3803
19 18 5 19 16 20 3813 3806 3802 3818 3805 3819 3825 3807 3809 3799 3816 3838 3815 3801 3828 3800 3813 3819 3806 3823 3819 3809 3808 3818 3791 3815 3813 3808 3795 3807
20 18 29 35 2 3794 3787 3783 3799 3786 3800 3806 3788 3790 3780 3797 3819 3796 3782 3809 3781 3794 3800 3787 3804 3801 3790 3789 3799 3772 3796 3794 3789 3776 3789
12 10 26 19 3803 3797 3793 3809 3795 3810 3816 3798 3800 3790 3807 3829 3806 3792 3819 3791 3804 3810 3797 3814 3810 3800 3799 3809 3782 3806 3804 3798 3786 3798
14 18 18 3810 3803 3799 3815 3802 3816 3823 3804 3806 3797 3813 3836 3813 3798 3825 3798 3810 3816 3804 3820 3817 3806 3806 3815 3789 3812 3810 3805 3792 3805
19 28 3813 3806 3802 3819 3805 3819 3826 3807 3809 3800 3817 3839 3816 3801 3828 3801 3813 3819 3807 3823 3820 3810 3809 3819 3792 3815 3814 3808 3796 3808
36 3828 3821 3817 3833 3820 3834 3840 3822 3824 3814 3831 3853 3830 3816 3843 3815 3828 3834 3821 3838 3834 3824 3823 3833 3806 3830 3828 3823 3810 3822
3793 3786 3782 3798 3785 3799 3805 3787 3789 3779 3796 3818 3795 3781 3808 3780 3793 3799 3786 3803 3799 3789 3788 3798 3771 3795 3793 3788 3775 3788
9 11 5 8 9 17 14 4 15 5 38 8 12 16 13 5 8 8 11 12 10 6 9 21 3 7 5 18 12
5 14 6 18 20 6 7 7 14 47 9 9 24 7 13 17 1 17 21 15 10 17 16 10 7 5 14 17
16 3 19 25 11 8 5 15 48 14 5 27 2 14 18 5 21 21 14 9 19 11 13 12 6 9 15
13 5 14 17 9 20 4 34 8 17 11 18 7 4 13 6 9 12 10 6 27 4 9 11 23 15
16 23 12 5 8 12 44 12 5 24 5 10 15 5 18 18 11 6 15 13 10 10 3 10 12
19 22 11 23 4 29 14 18 9 20 6 2 17 10 4 10 11 1 28 8 14 14 24 12
18 20 27 18 42 11 28 17 27 21 17 20 9 22 26 23 20 36 15 13 20 34 29
13 10 18 51 10 16 27 12 19 20 7 18 25 21 16 22 20 14 8 11 20 23
12 8 40 10 8 19 9 6 11 6 14 14 8 3 11 18 6 8 3 14 10
20 52 16 9 31 5 18 23 7 24 26 19 14 23 11 17 14 10 11 20
33 11 15 12 17 4 3 13 9 7 9 8 4 25 5 10 10 21 11
42 46 26 49 34 31 46 35 26 35 38 30 54 38 43 43 50 35
17 17 16 13 12 9 9 17 17 13 14 25 6 2 9 23 20
27 4 13 18 9 23 20 11 8 18 10 15 15 8 6 11
28 15 9 24 9 10 19 19 10 37 14 19 21 33 21
15 20 7 23 23 14 10 20 9 15 14 7 7 15
6 13 13 8 5 5 5 22 7 12 9 18 8
16 8 6 11 11 3 28 7 12 13 24 13
17 20 15 9 17 16 9 7 4 14 16
13 18 16 11 32 8 10 15 28 21
10 13 3 30 12 17 16 25 12
5 9 20 12 16 11 15 2
10 17 8 11 6 13 7
27 8 14 13 23 11
24 23 16 5 19
6 7 20 14
7 20 18
13 13
15

EOF
