NAME: clustered_200_s0
TYPE: TSP
DIMENSION: 200
EDGE_WEIGHT_TYPE: EXPLICIT
EDGE_WEIGHT_FORMAT: UPPER_ROW
EDGE_WEIGHT_SECTION
12 11 19 13 30 21 13 10 15 13 3 17 11 17 9 5 13 14 24 10 6 20 17 13 8 20 6 20 17 13 5 15 23 8 8 19 15 20 9 5164 5162 5172 5169 5148 5161 5147 5146 5160 5144 5138 5162 5166 5157 5155 5143 5154 5160 5157 5140 5147 5162 5146 5160 5164 5163 5157 5174 5156 5155 5149 5160 5166 5155 5152 5140 5151 5137 5148 5153 6503 6531 6521 6523 6518 6521 6508 6506 6517 6520 6528 6514 6498 6520 6531 6507 6521 6509 6518 6515 6505 6528 6539 6520 6521 6512 6543 6498 6521 6528 6519 6506 6501 6536 6501 6502 6495 6518 6515 6525 7875 7884 7872 7890 7889 7910 7884 7886 7892 7886 7883 7884 7876 7889 7878 7903 7880 7881 7898 7880 7894 7877 7890 7894 7889 7898 7886 7848 7884 7880 7889 7882 7870 7883 7886 7895 7879 7892 7880 7880 5734 5747 5744 5738 5736 5744 5755 5732 5745 5759 5758 5736 5752 5746 5759 5758 5747 5734 5741 5750 5744 5761 5736 5756 5757 5728 5743 5738 5736 5745 5745 5740 5749 5743 5751 5750 5759 5749 5752 5746
19 16 3 19 13 7 12 11 1 15 13 2 7 4 8 5 17 14 19 10 26 25 18 6 8 10 12 15 24 11 23 28 7 18 29 6 17 12 5157 5155 5164 5161 5141 5154 5140 5139 5153 5137 5130 5154 5159 5149 5148 5136 5146 5153 5150 5133 5139 5154 5139 5153 5156 5155 5150 5167 5148 5148 5141 5153 5159 5148 5145 5132 5144 5129 5141 5146 6505 6533 6523 6525 6519 6523 6510 6508 6519 6522 6530 6515 6499 6522 6533 6509 6522 6510 6520 6517 6507 6530 6541 6521 6523 6513 6544 6499 6523 6530 6521 6507 6502 6538 6503 6503 6497 6520 6517 6526 7868 7877 7865 7883 7882 7903 7877 7879 7885 7879 7876 7877 7869 7882 7871 7896 7873 7874 7891 7873 7887 7870 7883 7887 7882 7891 7879 7841 7877 7873 7882 7875 7863 7876 7879 7888 7872 7885 7873 7873 5736 5749 5747 5740 5738 5746 5757 5735 5748 5762 5760 5739 5755 5749 5761 5761 5749 5736 5743 5753 5747 5764 5739 5759 5760 5731 5746 5741 5739 5748 5748 5743 5752 5746 5754 5752 5762 5751 5754 5748
30 21 38 31 22 9 15 21 9 28 19 26 15 12 22 8 26 2 16 10 6 24 13 27 9 30 27 15 16 5 32 13 16 23 20 16 19 5160 5158 5167 5164 5144 5157 5142 5142 5155 5139 5133 5157 5162 5152 5151 5139 5149 5155 5153 5135 5142 5157 5142 5155 5159 5158 5153 5170 5151 5150 5144 5156 5162 5150 5148 5135 5146 5132 5144 5149 6493 6521 6511 6513 6507 6511 6498 6496 6507 6510 6518 6503 6488 6510 6521 6497 6510 6499 6508 6505 6495 6518 6529 6509 6511 6501 6532 6487 6511 6518 6509 6496 6490 6526 6491 6491 6485 6508 6505 6515 7870 7879 7867 7885 7884 7905 7879 7881 7887 7881 7878 7879 7871 7884 7873 7898 7875 7876 7893 7875 7889 7872 7884 7889 7884 7893 7881 7843 7879 7875 7884 7877 7865 7878 7881 7890 7874 7887 7875 7875 5723 5736 5734 5727 5725 5733 5744 5722 5734 5748 5747 5726 5741 5736 5748 5748 5736 5723 5730 5740 5733 5751 5725 5746 5747 5717 5733 5728 5726 5735 5735 5729 5739 5732 5741 5739 5749 5738 5741 5735
13 19 8 10 26 27 16 21 3 15 11 19 19 11 31 28 29 14 39 36 11 20 18 23 8 3 26 14 35 16 21 18 25 22 34 11 5171 5169 5178 5175 5155 5168 5154 5153 5167 5151 5144 5168 5173 5163 5162 5150 5160 5167 5164 5147 5153 5168 5153 5167 5170 5169 5164 5181 5162 5162 5155 5167 5173 5162 5159 5146 5157 5143 5155 5160 6521 6549 6538 6541 6535 6539 6525 6524 6535 6538 6546 6531 6515 6538 6549 6524 6538 6526 6536 6533 6523 6546 6556 6537 6539 6529 6560 6515 6538 6545 6536 6523 6518 6553 6519 6519 6513 6536 6533 6542 7882 7891 7880 7897 7897 7917 7891 7893 7899 7893 7890 7891 7883 7896 7885 7911 7887 7888 7905 7887 7902 7884 7897 7901 7896 7905 7894 7856 7891 7887 7896 7889 7877 7890 7893 7902 7886 7900 7888 7887 5752 5765 5763 5756 5754 5762 5773 5750 5763 5777 5776 5754 5770 5764 5777 5776 5765 5752 5759 5768 5762 5780 5754 5775 5776 5746 5761 5756 5754 5763 5763 5758 5767 5761 5770 5768 5777 5767 5770 5764
17 10 4 14 14 3 15 10 2 5 7 9 2 20 16 21 10 28 27 16 9 8 12 9 12 24 10 26 26 9 18 28 9 21 11 5159 5157 5167 5164 5144 5157 5142 5141 5155 5139 5133 5157 5161 5152 5150 5138 5149 5155 5153 5135 5142 5157 5141 5155 5159 5158 5153 5170 5151 5150 5144 5156 5161 5150 5147 5135 5146 5132 5143 5148 6508 6536 6526 6528 6522 6526 6513 6511 6522 6525 6533 6519 6503 6525 6536 6512 6526 6514 6523 6520 6510 6533 6544 6524 6526 6516 6548 6503 6526 6533 6524 6511 6506 6541 6506 6507 6500 6523 6520 6530 7871 7880 7868 7885 7885 7906 7879 7882 7888 7881 7879 7879 7872 7884 7874 7899 7875 7877 7893 7876 7890 7872 7885 7890 7885 7893 7882 7844 7879 7875 7884 7877 7866 7878 7881 7891 7874 7888 7876 7876 5740 5753 5750 5744 5742 5750 5761 5738 5751 5765 5764 5742 5758 5752 5765 5764 5753 5740 5747 5756 5750 5767 5742 5762 5763 5734 5749 5744 5742 5751 5751 5746 5755 5749 5757 5756 5765 5754 5758 5752
12 18 30 27 18 32 17 19 13 23 26 17 35 20 38 26 44 44 29 25 12 29 12 21 41 27 42 36 25 34 43 20 33 25 5154 5153 5162 5159 5139 5152 5137 5136 5150 5134 5128 5152 5156 5147 5145 5134 5144 5150 5148 5130 5137 5152 5136 5150 5154 5153 5148 5165 5146 5145 5139 5151 5157 5145 5142 5130 5141 5127 5138 5143 6517 6545 6534 6537 6531 6535 6521 6520 6530 6534 6542 6527 6511 6533 6545 6520 6534 6522 6531 6529 6519 6541 6552 6533 6535 6525 6556 6511 6534 6541 6532 6519 6514 6549 6515 6515 6509 6531 6529 6538 7866 7875 7864 7881 7881 7901 7875 7877 7883 7877 7874 7875 7867 7880 7869 7895 7871 7872 7889 7871 7886 7868 7881 7885 7880 7889 7878 7840 7875 7871 7880 7873 7861 7874 7877 7886 7870 7884 7872 7871 5749 5762 5760 5753 5751 5759 5770 5748 5761 5775 5773 5752 5768 5762 5774 5774 5762 5749 5756 5766 5760 5777 5751 5772 5773 5744 5759 5754 5752 5761 5761 5755 5765 5759 5767 5765 5775 5764 5767 5761
8 24 24 12 23 5 12 6 17 18 8 30 22 30 16 38 37 17 19 11 22 1 9 30 16 35 24 19 23 31 18 30 14 5164 5162 5171 5168 5148 5161 5147 5146 5159 5144 5137 5161 5166 5156 5155 5143 5153 5160 5157 5139 5146 5161 5146 5159 5163 5162 5157 5174 5155 5154 5148 5160 5166 5155 5152 5139 5150 5136 5148 5153 6518 6546 6535 6538 6532 6536 6522 6521 6531 6535 6543 6528 6512 6535 6546 6521 6535 6523 6532 6530 6520 6542 6553 6534 6536 6526 6557 6512 6535 6542 6533 6520 6515 6550 6516 6516 6510 6532 6530 6539 7875 7884 7873 7890 7889 7910 7884 7886 7892 7886 7883 7884 7876 7889 7878 7904 7880 7881 7898 7880 7895 7877 7890 7894 7889 7898 7887 7848 7884 7880 7889 7882 7870 7883 7886 7895 7879 7892 7881 7880 5749 5762 5760 5753 5751 5759 5770 5748 5761 5774 5773 5752 5767 5762 5774 5774 5762 5749 5756 5766 5760 5777 5751 5772 5773 5744 5759 5754 5752 5761 5761 5755 5765 5759 5767 5765 5775 5764 5767 5761
17 17 7 15 6 5 5 9 10 2 22 20 22 8 30 29 13 11 10 14 7 9 23 9 27 22 12 16 26 13 24 8 5163 5161 5170 5167 5147 5160 5146 5145 5159 5143 5137 5161 5165 5155 5154 5142 5152 5159 5156 5139 5145 5160 5145 5159 5162 5161 5156 5173 5154 5154 5147 5159 5165 5154 5151 5138 5150 5135 5147 5152 6511 6539 6529 6532 6526 6529 6516 6514 6525 6528 6536 6522 6506 6528 6539 6515 6529 6517 6526 6523 6513 6536 6547 6528 6529 6520 6551 6506 6529 6536 6527 6514 6509 6544 6509 6510 6503 6526 6523 6533 7874 7883 7872 7889 7888 7909 7883 7885 7891 7885 7882 7883 7875 7888 7877 7902 7879 7880 7897 7879 7894 7876 7889 7893 7888 7897 7885 7847 7883 7879 7888 7881 7869 7882 7885 7894 7878 7891 7879 7879 5742 5755 5753 5746 5745 5752 5764 5741 5754 5768 5767 5745 5761 5755 5767 5767 5755 5743 5749 5759 5753 5770 5745 5765 5766 5737 5752 5747 5745 5754 5754 5749 5758 5752 5760 5759 5768 5757 5760 5755
6 13 11 23 12 19 8 7 16 6 17 10 14 14 14 23 6 18 3 23 24 20 13 12 33 5 18 28 11 10 17 5155 5153 5162 5159 5139 5152 5138 5137 5150 5135 5128 5152 5157 5147 5146 5134 5144 5151 5148 5131 5137 5152 5137 5151 5154 5153 5148 5165 5146 5146 5139 5151 5157 5146 5143 5130 5141 5127 5139 5144 6495 6523 6513 6515 6510 6513 6500 6498 6509 6512 6520 6506 6490 6512 6523 6499 6513 6501 6510 6507 6497 6520 6531 6512 6513 6504 6535 6490 6513 6520 6511 6498 6493 6528 6493 6494 6487 6510 6507 6517 7866 7874 7863 7880 7880 7900 7874 7877 7883 7876 7874 7874 7866 7879 7869 7894 7870 7872 7888 7871 7885 7867 7880 7885 7880 7888 7877 7839 7874 7870 7879 7872 7861 7873 7876 7885 7869 7883 7871 7870 5726 5739 5737 5730 5728 5736 5747 5724 5737 5751 5750 5729 5744 5739 5751 5751 5739 5726 5733 5742 5736 5754 5728 5749 5750 5720 5736 5731 5729 5737 5738 5732 5742 5735 5744 5742 5751 5741 5744 5738
11 16 24 12 18 8 11 16 9 11 16 17 17 19 26 7 15 9 23 26 26 17 17 37 7 23 33 7 7 20 5150 5148 5157 5154 5134 5147 5132 5132 5145 5129 5123 5147 5152 5142 5141 5129 5139 5145 5143 5125 5132 5147 5132 5145 5149 5148 5143 5160 5141 5140 5134 5146 5152 5140 5138 5125 5136 5122 5134 5139 6494 6522 6512 6514 6508 6512 6499 6497 6508 6511 6519 6504 6489 6511 6522 6498 6511 6500 6509 6506 6496 6519 6530 6510 6512 6502 6533 6488 6512 6519 6510 6497 6491 6527 6492 6492 6486 6509 6506 6516 7861 7869 7858 7875 7875 7895 7869 7872 7878 7871 7869 7869 7861 7874 7864 7889 7865 7867 7883 7866 7880 7862 7875 7879 7874 7883 7872 7834 7869 7865 7874 7867 7855 7868 7871 7880 7864 7878 7866 7865 5725 5739 5736 5730 5728 5735 5747 5724 5737 5751 5750 5728 5744 5738 5750 5750 5738 5726 5733 5742 5736 5753 5728 5748 5749 5720 5735 5730 5728 5737 5737 5732 5741 5735 5743 5742 5751 5740 5743 5738
16 13 2 7 5 9 5 18 13 21 11 27 26 19 7 6 11 11 15 25 12 24 29 8 19 30 6 18 13 5157 5154 5164 5161 5141 5154 5139 5138 5152 5136 5130 5154 5159 5149 5147 5135 5146 5152 5150 5132 5139 5154 5138 5152 5156 5155 5150 5167 5148 5147 5141 5153 5159 5147 5144 5132 5143 5129 5140 5145 6505 6533 6523 6526 6520 6524 6510 6509 6519 6522 6530 6516 6500 6522 6533 6509 6523 6511 6520 6517 6507 6530 6541 6522 6524 6514 6545 6500 6523 6530 6521 6508 6503 6538 6504 6504 6498 6520 6517 6527 7868 7877 7865 7882 7882 7903 7876 7879 7885 7878 7876 7876 7868 7881 7871 7896 7872 7874 7890 7873 7887 7869 7882 7887 7882 7890 7879 7841 7876 7872 7881 7874 7863 7875 7878 7888 7871 7885 7873 7873 5737 5750 5748 5741 5739 5747 5758 5735 5748 5762 5761 5740 5755 5750 5762 5761 5750 5737 5744 5753 5747 5765 5739 5760 5761 5731 5747 5741 5740 5748 5748 5743 5752 5746 5755 5753 5762 5752 5755 5749
19 14 19 12 7 16 14 26 8 8 19 15 14 11 22 8 22 18 10 7 14 23 10 7 17 18 21 10 5166 5164 5173 5170 5150 5163 5148 5148 5161 5145 5139 5163 5168 5158 5157 5145 5155 5161 5159 5141 5148 5163 5148 5161 5165 5164 5159 5176 5157 5156 5150 5162 5168 5156 5153 5141 5152 5138 5149 5155 6502 6530 6520 6523 6517 6521 6507 6506 6516 6519 6527 6513 6497 6519 6530 6506 6520 6508 6517 6514 6504 6527 6538 6519 6521 6511 6542 6497 6520 6527 6518 6505 6500 6535 6501 6501 6495 6517 6514 6524 7876 7885 7874 7891 7890 7911 7885 7887 7893 7887 7884 7885 7877 7890 7879 7904 7881 7882 7899 7881 7896 7878 7891 7895 7890 7899 7887 7849 7885 7881 7890 7883 7871 7884 7887 7896 7880 7893 7881 7881 5733 5746 5743 5737 5735 5743 5754 5731 5744 5758 5757 5735 5751 5745 5757 5757 5746 5733 5740 5749 5743 5760 5735 5755 5756 5727 5742 5737 5735 5744 5744 5739 5748 5742 5750 5749 5758 5747 5751 5745
12 8 16 16 8 29 25 27 12 36 34 11 17 14 20 5 4 25 13 32 19 18 18 26 19 30 10 5168 5166 5175 5172 5152 5165 5150 5150 5163 5147 5141 5165 5170 5160 5159 5147 5157 5163 5161 5143 5150 5165 5150 5163 5167 5166 5161 5178 5159 5158 5152 5164 5170 5158 5156 5143 5154 5140 5152 5157 6518 6546 6535 6538 6532 6536 6522 6521 6531 6535 6543 6528 6512 6535 6546 6521 6535 6523 6533 6530 6520 6543 6553 6534 6536 6526 6557 6512 6535 6542 6533 6520 6515 6550 6516 6516 6510 6533 6530 6539 7879 7888 7876 7894 7893 7914 7888 7890 7896 7890 7887 7888 7880 7893 7882 7907 7884 7885 7902 7884 7898 7881 7894 7898 7893 7902 7890 7852 7888 7884 7893 7886 7874 7887 7890 7899 7883 7896 7884 7884 5749 5762 5760 5753 5751 5759 5770 5747 5760 5774 5773 5751 5767 5762 5774 5773 5762 5749 5756 5765 5759 5777 5751 5772 5773 5743 5759 5753 5751 5760 5760 5755 5764 5758 5767 5765 5774 5764 5767 5761
7 4 7 4 18 15 19 9 26 25 16 6 8 10 11 14 23 9 23 27 7 17 28 7 19 11 5159 5157 5166 5163 5143 5156 5141 5141 5154 5138 5132 5156 5161 5151 5150 5138 5148 5154 5152 5134 5141 5156 5141 5154 5158 5157 5152 5169 5150 5149 5143 5155 5161 5149 5146 5134 5145 5131 5142 5148 6506 6534 6524 6526 6520 6524 6511 6509 6520 6523 6531 6516 6501 6523 6534 6510 6523 6511 6521 6518 6508 6531 6542 6522 6524 6514 6545 6500 6524 6531 6522 6508 6503 6539 6504 6504 6498 6521 6518 6528 7870 7879 7867 7884 7884 7905 7878 7881 7887 7880 7878 7878 7871 7883 7873 7898 7874 7876 7892 7875 7889 7871 7884 7889 7884 7892 7881 7843 7878 7875 7883 7877 7865 7877 7880 7890 7873 7887 7875 7875 5737 5750 5748 5741 5739 5747 5758 5736 5749 5762 5761 5740 5755 5750 5762 5762 5750 5737 5744 5754 5748 5765 5739 5760 5761 5732 5747 5742 5740 5749 5749 5743 5753 5747 5755 5753 5763 5752 5755 5749
11 13 4 25 17 26 13 33 32 17 13 7 17 5 11 28 13 30 26 14 21 30 12 25 13 5160 5158 5167 5164 5144 5157 5143 5142 5156 5140 5134 5158 5162 5152 5151 5139 5149 5156 5153 5136 5143 5157 5142 5156 5159 5158 5153 5170 5151 5151 5144 5156 5162 5151 5148 5136 5147 5132 5144 5149 6512 6540 6530 6532 6526 6530 6517 6515 6526 6529 6537 6522 6506 6529 6540 6516 6529 6517 6527 6524 6514 6537 6548 6528 6530 6520 6551 6506 6530 6536 6528 6514 6509 6545 6510 6510 6504 6527 6524 6533 7872 7880 7869 7886 7886 7906 7880 7883 7889 7882 7879 7880 7872 7885 7875 7900 7876 7877 7894 7877 7891 7873 7886 7890 7885 7894 7883 7845 7880 7876 7885 7878 7866 7879 7882 7891 7875 7889 7877 7876 5743 5757 5754 5748 5746 5754 5765 5742 5755 5769 5768 5746 5762 5756 5768 5768 5756 5744 5751 5760 5754 5771 5746 5766 5767 5738 5753 5748 5746 5755 5755 5750 5759 5753 5761 5760 5769 5758 5761 5756
4 8 13 15 15 10 22 21 18 2 11 6 16 17 22 9 19 29 3 16 27 6 15 12 5157 5155 5164 5161 5141 5154 5140 5139 5153 5137 5130 5154 5159 5149 5148 5136 5146 5153 5150 5133 5139 5154 5139 5153 5156 5155 5150 5167 5148 5148 5141 5153 5159 5148 5145 5132 5144 5129 5141 5146 6502 6530 6520 6522 6516 6520 6507 6505 6516 6519 6527 6512 6496 6519 6530 6506 6519 6507 6517 6514 6504 6527 6538 6518 6520 6510 6541 6496 6520 6527 6518 6504 6499 6535 6500 6500 6494 6517 6514 6523 7868 7877 7865 7883 7882 7903 7877 7879 7885 7879 7876 7877 7869 7882 7871 7896 7873 7874 7891 7873 7887 7869 7882 7887 7882 7891 7879 7841 7877 7873 7882 7875 7863 7876 7878 7888 7871 7885 7873 7873 5733 5746 5744 5737 5735 5743 5754 5731 5744 5758 5757 5736 5751 5746 5758 5758 5746 5733 5740 5749 5743 5761 5735 5756 5757 5727 5743 5738 5736 5744 5744 5739 5748 5742 5751 5749 5758 5748 5751 5745
10 13 19 12 7 20 19 16 4 15 4 17 17 17 6 17 26 4 13 23 11 17 10 5160 5158 5168 5165 5144 5157 5143 5142 5156 5140 5134 5158 5162 5153 5151 5139 5149 5156 5153 5136 5143 5158 5142 5156 5159 5159 5153 5170 5151 5151 5144 5156 5162 5151 5148 5136 5147 5133 5144 5149 6502 6530 6520 6523 6517 6520 6507 6505 6516 6519 6527 6513 6497 6519 6530 6506 6520 6508 6517 6514 6504 6527 6538 6519 6521 6511 6542 6497 6520 6527 6518 6505 6500 6535 6500 6501 6494 6517 6514 6524 7871 7880 7868 7886 7885 7906 7880 7882 7888 7882 7879 7880 7872 7885 7874 7899 7876 7877 7894 7876 7890 7873 7886 7890 7885 7894 7882 7844 7880 7876 7885 7878 7866 7879 7882 7891 7875 7888 7876 7876 5733 5746 5744 5737 5735 5743 5754 5732 5744 5758 5757 5736 5751 5746 5758 5758 5746 5733 5740 5750 5743 5761 5735 5756 5757 5727 5743 5738 5736 5745 5745 5739 5749 5742 5751 5749 5759 5748 5751 5745
22 18 22 9 30 28 15 10 8 14 8 11 24 10 27 24 11 17 27 11 22 10 5161 5159 5168 5165 5145 5158 5144 5143 5156 5141 5134 5158 5163 5153 5152 5140 5150 5157 5154 5136 5143 5158 5143 5157 5160 5159 5154 5171 5152 5152 5145 5157 5163 5152 5149 5136 5147 5133 5145 5150 6510 6538 6528 6530 6524 6528 6515 6513 6524 6527 6535 6520 6504 6527 6538 6514 6527 6515 6525 6522 6512 6535 6546 6526 6528 6518 6549 6504 6528 6535 6526 6512 6507 6543 6508 6508 6502 6525 6522 6532 7872 7881 7869 7887 7886 7907 7881 7883 7889 7883 7880 7881 7873 7886 7875 7900 7877 7878 7895 7877 7891 7874 7887 7891 7886 7895 7883 7845 7881 7877 7886 7879 7867 7880 7883 7892 7876 7889 7877 7877 5741 5754 5752 5745 5743 5751 5762 5740 5753 5766 5765 5744 5759 5754 5766 5766 5754 5741 5748 5758 5752 5769 5743 5764 5765 5736 5751 5746 5744 5753 5753 5747 5757 5751 5759 5757 5767 5756 5759 5753
20 9 19 8 10 27 11 23 9 29 29 22 18 8 37 11 21 30 15 9 22 5153 5150 5160 5157 5137 5149 5135 5134 5148 5132 5126 5150 5155 5145 5143 5131 5142 5148 5145 5128 5135 5150 5134 5148 5152 5151 5146 5163 5144 5143 5137 5149 5154 5143 5140 5128 5139 5125 5136 5141 6490 6518 6507 6510 6504 6508 6494 6493 6504 6507 6515 6500 6484 6507 6518 6493 6507 6495 6505 6502 6492 6515 6525 6506 6508 6498 6529 6484 6507 6514 6505 6492 6487 6522 6488 6488 6482 6505 6502 6511 7863 7872 7860 7878 7877 7898 7872 7874 7880 7874 7871 7872 7864 7877 7866 7891 7868 7869 7886 7868 7882 7864 7877 7882 7877 7886 7874 7836 7872 7868 7877 7870 7858 7870 7873 7883 7866 7880 7868 7868 5720 5733 5731 5724 5722 5730 5742 5719 5732 5746 5745 5723 5739 5733 5745 5745 5733 5720 5727 5737 5731 5748 5723 5743 5744 5715 5730 5725 5723 5732 5732 5727 5736 5730 5738 5736 5746 5735 5738 5733
27 24 28 31 32 15 11 19 22 28 36 24 28 42 16 31 42 8 14 26 5143 5141 5151 5148 5127 5140 5126 5125 5139 5123 5117 5141 5145 5136 5134 5122 5133 5139 5136 5119 5126 5141 5125 5139 5143 5142 5137 5154 5135 5134 5128 5139 5145 5134 5131 5119 5130 5116 5127 5132 6497 6525 6514 6517 6511 6515 6501 6500 6510 6514 6522 6507 6491 6514 6525 6500 6514 6502 6511 6509 6499 6521 6532 6513 6515 6505 6536 6491 6514 6521 6512 6499 6494 6529 6495 6495 6489 6512 6509 6518 7855 7864 7852 7869 7869 7890 7863 7866 7872 7865 7863 7863 7855 7868 7858 7883 7859 7861 7877 7860 7874 7856 7869 7874 7869 7877 7866 7828 7863 7859 7868 7861 7850 7862 7865 7875 7858 7872 7860 7860 5729 5742 5740 5733 5731 5739 5750 5727 5740 5754 5753 5732 5747 5742 5754 5753 5742 5729 5736 5745 5739 5757 5731 5752 5753 5723 5739 5734 5732 5740 5740 5735 5744 5738 5747 5745 5754 5744 5747 5741
15 12 7 22 14 27 9 29 26 13 15 6 31 13 14 22 20 18 18 5161 5159 5169 5166 5145 5158 5144 5143 5157 5141 5135 5159 5163 5154 5152 5140 5151 5157 5154 5137 5144 5159 5143 5157 5160 5160 5154 5171 5152 5152 5146 5157 5163 5152 5149 5137 5148 5134 5145 5150 6494 6522 6512 6515 6509 6513 6499 6498 6508 6511 6519 6505 6489 6511 6522 6498 6512 6500 6509 6506 6496 6519 6530 6511 6513 6503 6534 6489 6512 6519 6510 6497 6492 6527 6493 6493 6487 6509 6506 6516 7872 7881 7869 7886 7886 7907 7880 7883 7889 7882 7880 7880 7873 7885 7875 7900 7876 7878 7894 7877 7891 7873 7886 7891 7886 7894 7883 7845 7880 7877 7885 7878 7867 7879 7882 7892 7875 7889 7877 7877 5724 5737 5735 5728 5726 5734 5746 5723 5736 5750 5749 5727 5743 5737 5749 5749 5737 5725 5731 5741 5735 5752 5727 5747 5748 5719 5734 5729 5727 5736 5736 5731 5740 5734 5742 5741 5750 5739 5742 5737
26 22 9 10 17 10 15 11 15 1 21 19 10 8 19 16 23 3 5167 5164 5174 5171 5151 5164 5149 5148 5162 5146 5140 5164 5169 5159 5157 5145 5156 5162 5160 5142 5149 5164 5148 5162 5166 5165 5160 5177 5158 5157 5151 5163 5169 5157 5154 5142 5153 5139 5150 5155 6508 6536 6526 6529 6523 6527 6513 6512 6522 6525 6533 6519 6503 6525 6536 6512 6526 6514 6523 6520 6510 6533 6544 6525 6527 6517 6548 6503 6526 6533 6524 6511 6506 6541 6507 6507 6501 6523 6520 6530 7878 7886 7875 7892 7892 7912 7886 7889 7895 7888 7885 7886 7878 7891 7881 7906 7882 7883 7900 7883 7897 7879 7892 7896 7891 7900 7889 7851 7886 7882 7891 7884 7872 7885 7888 7897 7881 7895 7883 7882 5739 5752 5750 5743 5741 5749 5760 5737 5750 5764 5763 5742 5757 5752 5764 5764 5752 5739 5746 5755 5749 5767 5741 5762 5763 5733 5749 5744 5742 5750 5750 5745 5754 5748 5757 5755 5764 5754 5757 5751
7 34 20 32 16 37 37 25 25 7 42 19 26 33 24 14 29 5151 5149 5158 5155 5135 5148 5134 5133 5147 5131 5125 5149 5153 5144 5142 5130 5140 5147 5144 5127 5134 5149 5133 5147 5150 5149 5144 5161 5142 5142 5135 5147 5153 5142 5139 5127 5138 5124 5135 5140 6483 6511 6501 6503 6497 6501 6488 6486 6497 6500 6508 6493 6478 6500 6511 6487 6500 6489 6498 6495 6485 6508 6519 6499 6501 6491 6522 6477 6501 6508 6499 6486 6480 6516 6481 6481 6475 6498 6495 6505 7861 7870 7859 7876 7875 7896 7870 7872 7878 7872 7869 7870 7862 7875 7864 7889 7866 7867 7884 7866 7881 7863 7876 7880 7875 7884 7872 7835 7870 7866 7875 7868 7856 7869 7872 7881 7865 7878 7866 7866 5713 5726 5724 5717 5715 5723 5734 5712 5725 5739 5737 5716 5732 5726 5738 5738 5726 5713 5720 5730 5724 5741 5716 5736 5737 5708 5723 5718 5716 5725 5725 5720 5729 5723 5731 5729 5739 5728 5731 5725
29 19 32 15 36 33 18 22 2 37 19 21 26 25 19 25 5159 5156 5166 5163 5143 5156 5141 5141 5154 5138 5132 5156 5161 5151 5149 5137 5148 5154 5151 5134 5141 5156 5141 5154 5158 5157 5152 5169 5150 5149 5143 5155 5161 5149 5146 5134 5145 5131 5142 5147 6488 6516 6506 6508 6502 6506 6493 6491 6502 6505 6513 6498 6482 6505 6516 6492 6505 6493 6503 6500 6490 6513 6524 6504 6506 6496 6527 6482 6506 6512 6503 6490 6485 6521 6486 6486 6480 6503 6500 6509 7869 7877 7866 7883 7883 7903 7877 7880 7886 7879 7877 7877 7869 7882 7872 7897 7873 7875 7891 7874 7888 7870 7883 7888 7883 7891 7880 7842 7877 7873 7882 7875 7864 7876 7879 7888 7872 7886 7874 7874 5718 5731 5728 5722 5720 5728 5739 5716 5729 5743 5742 5720 5736 5730 5743 5742 5731 5718 5725 5734 5728 5746 5720 5741 5741 5712 5727 5722 5720 5729 5729 5724 5733 5727 5736 5734 5743 5733 5736 5730
19 23 19 16 8 16 10 28 10 19 9 15 24 32 6 5175 5173 5182 5179 5159 5172 5158 5157 5171 5155 5148 5172 5177 5167 5166 5154 5164 5171 5168 5151 5157 5172 5157 5171 5174 5173 5168 5185 5166 5166 5159 5171 5177 5166 5163 5150 5162 5147 5159 5164 6516 6544 6534 6537 6531 6535 6521 6520 6530 6533 6541 6527 6511 6533 6545 6520 6534 6522 6531 6528 6519 6541 6552 6533 6535 6525 6556 6511 6534 6541 6532 6519 6514 6549 6515 6515 6509 6531 6528 6538 7886 7895 7883 7901 7900 7921 7895 7897 7903 7897 7894 7895 7887 7900 7889 7914 7891 7892 7909 7891 7905 7888 7900 7905 7900 7909 7897 7859 7895 7891 7900 7893 7881 7894 7897 7906 7890 7903 7891 7891 5747 5760 5757 5751 5749 5757 5768 5745 5758 5772 5771 5749 5765 5759 5772 5771 5760 5747 5754 5763 5757 5775 5749 5770 5770 5741 5756 5751 5749 5758 5758 5753 5762 5756 5765 5763 5772 5762 5765 5759
13 4 18 19 21 10 17 29 1 16 27 7 13 13 5157 5155 5164 5161 5141 5154 5139 5139 5152 5136 5130 5154 5159 5149 5148 5136 5146 5152 5150 5132 5139 5154 5139 5152 5156 5155 5150 5167 5148 5147 5141 5153 5159 5147 5144 5132 5143 5129 5141 5146 6500 6528 6518 6521 6515 6518 6505 6503 6514 6517 6525 6511 6495 6517 6528 6504 6518 6506 6515 6512 6502 6525 6536 6517 6518 6509 6540 6495 6518 6525 6516 6503 6498 6533 6498 6499 6492 6515 6512 6522 7868 7876 7865 7882 7882 7902 7876 7879 7885 7878 7876 7876 7868 7881 7871 7896 7872 7874 7890 7873 7887 7869 7882 7886 7881 7890 7879 7841 7876 7872 7881 7874 7862 7875 7878 7887 7871 7885 7873 7872 5731 5744 5742 5735 5733 5741 5753 5730 5743 5757 5755 5734 5750 5744 5756 5756 5744 5731 5738 5748 5742 5759 5734 5754 5755 5726 5741 5736 5734 5743 5743 5738 5747 5741 5749 5747 5757 5746 5749 5743
17 11 18 32 17 30 32 14 25 36 8 21 18 5153 5151 5161 5158 5137 5150 5136 5135 5149 5133 5127 5151 5155 5146 5144 5132 5143 5149 5146 5129 5136 5151 5135 5149 5153 5152 5147 5164 5145 5144 5138 5149 5155 5144 5141 5129 5140 5126 5137 5142 6507 6535 6525 6527 6521 6525 6512 6510 6521 6524 6532 6518 6502 6524 6535 6511 6525 6513 6522 6519 6509 6532 6543 6523 6525 6515 6547 6502 6525 6532 6523 6510 6505 6540 6505 6506 6499 6522 6519 6529 7865 7874 7862 7880 7879 7900 7873 7876 7882 7876 7873 7874 7866 7878 7868 7893 7870 7871 7888 7870 7884 7866 7879 7884 7879 7887 7876 7838 7874 7870 7878 7872 7860 7872 7875 7885 7868 7882 7870 7870 5739 5752 5750 5743 5741 5749 5760 5738 5751 5764 5763 5742 5758 5752 5764 5764 5752 5739 5746 5756 5750 5767 5741 5762 5763 5734 5749 5744 5742 5751 5751 5745 5755 5749 5757 5755 5765 5754 5757 5751
21 21 18 10 13 29 4 14 25 11 14 14 5158 5156 5165 5162 5142 5155 5141 5140 5154 5138 5132 5156 5160 5150 5149 5137 5147 5154 5151 5134 5141 5155 5140 5154 5157 5156 5151 5168 5149 5149 5142 5154 5160 5149 5146 5134 5145 5130 5142 5147 6498 6526 6516 6519 6513 6517 6503 6501 6512 6515 6523 6509 6493 6515 6526 6502 6516 6504 6513 6510 6500 6523 6534 6515 6517 6507 6538 6493 6516 6523 6514 6501 6496 6531 6497 6497 6491 6513 6510 6520 7869 7878 7866 7884 7883 7904 7877 7880 7886 7880 7877 7878 7870 7883 7872 7897 7874 7875 7892 7874 7888 7870 7883 7888 7883 7892 7880 7842 7878 7874 7882 7876 7864 7876 7879 7889 7872 7886 7874 7874 5729 5742 5740 5733 5731 5739 5750 5728 5740 5754 5753 5732 5747 5742 5754 5754 5742 5729 5736 5746 5739 5757 5731 5752 5753 5723 5739 5734 5732 5741 5741 5735 5745 5738 5747 5745 5755 5744 5747 5741
9 29 16 34 24 18 22 31 17 29 14 5163 5161 5171 5168 5147 5160 5146 5145 5159 5143 5137 5161 5165 5156 5154 5142 5153 5159 5156 5139 5146 5161 5145 5159 5163 5162 5157 5173 5155 5154 5148 5159 5165 5154 5151 5139 5150 5136 5147 5152 6517 6545 6534 6537 6531 6535 6521 6520 6531 6534 6542 6527 6511 6534 6545 6520 6534 6522 6532 6529 6519 6542 6552 6533 6535 6525 6556 6511 6534 6541 6532 6519 6514 6549 6515 6515 6509 6532 6529 6538 7875 7884 7872 7890 7889 7910 7884 7886 7892 7886 7883 7884 7876 7889 7878 7903 7880 7881 7898 7880 7894 7876 7889 7894 7889 7898 7886 7848 7884 7880 7889 7882 7870 7883 7885 7895 7878 7892 7880 7880 5748 5761 5759 5752 5750 5758 5769 5747 5760 5774 5772 5751 5767 5761 5773 5773 5761 5748 5755 5765 5759 5776 5751 5771 5772 5743 5758 5753 5751 5760 5760 5755 5764 5758 5766 5764 5774 5763 5766 5760
23 12 32 15 19 15 23 21 32 8 5171 5169 5179 5175 5155 5168 5154 5153 5167 5151 5145 5169 5173 5164 5162 5150 5160 5167 5164 5147 5154 5168 5153 5167 5170 5169 5164 5181 5162 5162 5155 5167 5173 5162 5159 5147 5158 5144 5155 5160 6519 6547 6537 6539 6533 6537 6524 6522 6533 6536 6544 6529 6513 6536 6547 6523 6536 6524 6534 6531 6521 6544 6555 6535 6537 6527 6558 6513 6537 6544 6535 6521 6516 6552 6517 6517 6511 6534 6531 6540 7883 7891 7880 7897 7897 7917 7891 7894 7900 7893 7891 7891 7883 7896 7886 7911 7887 7889 7905 7888 7902 7884 7897 7902 7896 7905 7894 7856 7891 7887 7896 7889 7878 7890 7893 7902 7886 7900 7888 7887 5750 5763 5761 5754 5752 5760 5771 5748 5761 5775 5774 5752 5768 5762 5775 5774 5763 5750 5757 5766 5760 5778 5752 5773 5774 5744 5759 5754 5752 5761 5761 5756 5765 5759 5768 5766 5775 5765 5768 5762
14 18 20 21 7 8 28 30 16 5175 5172 5182 5179 5159 5172 5157 5157 5170 5154 5148 5172 5177 5167 5165 5153 5164 5170 5168 5150 5157 5172 5157 5170 5174 5173 5168 5185 5166 5165 5159 5171 5177 5165 5162 5150 5161 5147 5158 5164 6505 6533 6523 6525 6519 6523 6510 6508 6519 6522 6530 6515 6500 6522 6533 6509 6523 6511 6520 6517 6507 6530 6541 6521 6523 6513 6544 6499 6523 6530 6521 6508 6502 6538 6503 6504 6497 6520 6517 6527 7885 7894 7882 7900 7899 7920 7894 7896 7902 7896 7893 7894 7886 7899 7888 7913 7890 7891 7908 7890 7904 7886 7899 7904 7899 7908 7896 7858 7894 7890 7899 7892 7880 7893 7896 7905 7888 7902 7890 7890 5734 5747 5745 5738 5736 5744 5755 5733 5746 5760 5759 5737 5753 5747 5759 5759 5747 5734 5741 5751 5745 5762 5737 5757 5758 5729 5744 5739 5737 5746 5746 5741 5750 5744 5752 5750 5760 5749 5752 5746
20 20 10 8 18 16 23 4 5166 5164 5174 5171 5150 5163 5149 5148 5162 5146 5140 5164 5168 5159 5157 5145 5156 5162 5159 5142 5149 5164 5148 5162 5165 5165 5159 5176 5157 5157 5150 5162 5168 5157 5154 5142 5153 5139 5150 5155 6508 6536 6525 6528 6522 6526 6512 6511 6522 6525 6533 6518 6502 6525 6536 6511 6525 6513 6523 6520 6510 6533 6543 6524 6526 6516 6547 6502 6525 6532 6523 6510 6505 6540 6506 6506 6500 6523 6520 6529 7877 7886 7875 7892 7891 7912 7886 7888 7894 7888 7885 7886 7878 7891 7880 7905 7882 7883 7900 7882 7896 7879 7892 7896 7891 7900 7888 7850 7886 7882 7891 7884 7872 7885 7888 7897 7881 7894 7882 7882 5738 5751 5749 5742 5740 5748 5759 5737 5750 5763 5762 5741 5756 5751 5763 5763 5751 5738 5745 5755 5749 5766 5740 5761 5762 5733 5748 5743 5741 5750 5750 5744 5754 5747 5756 5754 5764 5753 5756 5750
36 17 20 27 23 17 24 5158 5155 5165 5162 5142 5155 5140 5140 5153 5137 5131 5155 5160 5150 5148 5136 5147 5153 5150 5133 5140 5155 5140 5153 5157 5156 5151 5168 5149 5148 5142 5154 5160 5148 5145 5133 5144 5130 5141 5146 6488 6516 6506 6509 6503 6507 6493 6492 6502 6506 6514 6499 6483 6505 6517 6492 6506 6494 6503 6500 6491 6513 6524 6505 6507 6497 6528 6483 6506 6513 6504 6491 6486 6521 6487 6487 6481 6503 6501 6510 7868 7877 7865 7882 7882 7903 7876 7879 7885 7878 7876 7876 7869 7881 7871 7896 7872 7874 7890 7873 7887 7869 7882 7887 7882 7890 7879 7841 7876 7872 7881 7874 7863 7875 7878 7888 7871 7885 7873 7873 5719 5732 5729 5723 5721 5729 5740 5717 5730 5744 5743 5721 5737 5731 5743 5743 5732 5719 5726 5735 5729 5746 5721 5741 5742 5713 5728 5723 5721 5730 5730 5725 5734 5728 5736 5735 5744 5734 5737 5731
29 16 15 34 42 16 5185 5183 5192 5189 5169 5182 5168 5167 5181 5165 5159 5183 5187 5177 5176 5164 5174 5181 5178 5161 5168 5182 5167 5181 5184 5183 5178 5195 5176 5176 5169 5181 5187 5176 5173 5161 5172 5157 5169 5174 6525 6553 6543 6545 6539 6543 6530 6528 6539 6542 6550 6535 6520 6542 6553 6529 6542 6530 6540 6537 6527 6550 6561 6541 6543 6533 6564 6519 6543 6550 6541 6527 6522 6558 6523 6523 6517 6540 6537 6546 7896 7905 7894 7911 7910 7931 7905 7907 7913 7907 7904 7905 7897 7910 7899 7924 7901 7902 7919 7901 7916 7898 7911 7915 7910 7919 7907 7869 7905 7901 7910 7903 7891 7904 7907 7916 7900 7913 7901 7901 5754 5767 5765 5758 5757 5765 5776 5753 5766 5780 5779 5757 5773 5767 5779 5779 5767 5755 5761 5771 5765 5782 5757 5777 5778 5749 5764 5759 5757 5766 5766 5761 5770 5764 5772 5771 5780 5769 5772 5767
16 27 8 13 13 5157 5155 5164 5161 5141 5154 5139 5139 5152 5136 5130 5154 5159 5149 5148 5136 5146 5152 5150 5132 5139 5154 5139 5152 5156 5155 5150 5167 5148 5147 5141 5153 5159 5147 5144 5132 5143 5129 5140 5146 6500 6528 6518 6520 6514 6518 6504 6503 6514 6517 6525 6510 6494 6517 6528 6503 6517 6505 6515 6512 6502 6525 6536 6516 6518 6508 6539 6494 6518 6524 6515 6502 6497 6533 6498 6498 6492 6515 6512 6521 7868 7876 7865 7882 7882 7902 7876 7879 7885 7878 7875 7876 7868 7881 7871 7896 7872 7873 7890 7873 7887 7869 7882 7886 7881 7890 7879 7841 7876 7872 7881 7874 7862 7875 7878 7887 7871 7885 7873 7872 5731 5744 5742 5735 5733 5741 5752 5729 5742 5756 5755 5734 5749 5744 5756 5755 5744 5731 5738 5747 5741 5759 5733 5754 5755 5725 5741 5735 5733 5742 5742 5737 5746 5740 5749 5747 5756 5746 5749 5743
11 23 28 8 5172 5170 5180 5177 5156 5169 5155 5154 5168 5152 5146 5170 5175 5165 5163 5151 5162 5168 5165 5148 5155 5170 5154 5168 5172 5171 5166 5183 5164 5163 5157 5169 5174 5163 5160 5148 5159 5145 5156 5161 6509 6537 6526 6529 6523 6527 6513 6512 6523 6526 6534 6519 6503 6526 6537 6512 6526 6514 6524 6521 6511 6534 6544 6525 6527 6517 6548 6503 6526 6533 6524 6511 6506 6541 6507 6507 6501 6524 6521 6530 7883 7892 7881 7898 7897 7918 7892 7894 7900 7894 7891 7892 7884 7897 7886 7911 7888 7889 7906 7888 7902 7885 7898 7902 7897 7906 7894 7856 7892 7888 7897 7890 7878 7891 7894 7903 7887 7900 7888 7888 5739 5752 5749 5743 5741 5749 5760 5737 5750 5764 5763 5741 5757 5751 5763 5763 5752 5739 5746 5755 5749 5766 5741 5761 5762 5733 5748 5743 5741 5750 5750 5745 5754 5748 5756 5755 5764 5754 5757 5751
34 38 18 5182 5180 5190 5187 5166 5179 5165 5164 5178 5162 5156 5180 5184 5175 5173 5161 5172 5178 5175 5158 5165 5180 5164 5178 5181 5181 5175 5192 5173 5173 5167 5178 5184 5173 5170 5158 5169 5155 5166 5171 6512 6540 6530 6533 6527 6531 6517 6516 6526 6529 6538 6523 6507 6529 6541 6516 6530 6518 6527 6524 6515 6537 6548 6529 6531 6521 6552 6507 6530 6537 6528 6515 6510 6545 6511 6511 6505 6527 6524 6534 7893 7902 7890 7908 7907 7928 7902 7904 7910 7904 7901 7902 7894 7907 7896 7921 7898 7899 7916 7898 7912 7894 7907 7912 7907 7916 7904 7866 7902 7898 7906 7900 7888 7900 7903 7913 7896 7910 7898 7898 5741 5754 5752 5745 5743 5752 5763 5740 5753 5767 5766 5744 5760 5754 5766 5766 5754 5742 5748 5758 5752 5769 5744 5764 5765 5736 5751 5746 5744 5753 5753 5748 5757 5751 5759 5758 5767 5756 5759 5754
13 18 5151 5149 5159 5155 5135 5148 5134 5133 5147 5131 5125 5149 5153 5144 5142 5130 5140 5147 5144 5127 5134 5149 5133 5147 5150 5150 5144 5161 5142 5142 5135 5147 5153 5142 5139 5127 5138 5124 5135 5140 6500 6528 6518 6520 6514 6518 6505 6503 6514 6517 6525 6510 6495 6517 6528 6504 6517 6505 6515 6512 6502 6525 6536 6516 6518 6508 6539 6494 6518 6525 6516 6502 6497 6533 6498 6498 6492 6515 6512 6522 7862 7871 7860 7877 7876 7897 7871 7873 7879 7873 7870 7871 7863 7876 7865 7890 7867 7868 7885 7867 7882 7864 7877 7881 7876 7885 7873 7835 7871 7867 7876 7869 7857 7870 7873 7882 7866 7879 7868 7867 5732 5745 5742 5736 5734 5742 5753 5730 5743 5757 5756 5734 5750 5744 5757 5756 5745 5732 5739 5748 5742 5760 5734 5755 5755 5726 5741 5736 5734 5743 5743 5738 5747 5741 5750 5748 5757 5747 5750 5744
26 5145 5143 5152 5149 5129 5142 5128 5127 5140 5125 5118 5142 5147 5137 5136 5124 5134 5140 5138 5120 5127 5142 5127 5140 5144 5143 5138 5155 5136 5135 5129 5141 5147 5136 5133 5120 5131 5117 5129 5134 6487 6515 6505 6508 6502 6506 6492 6491 6501 6504 6512 6498 6482 6504 6515 6491 6505 6493 6502 6499 6490 6512 6523 6504 6506 6496 6527 6482 6505 6512 6503 6490 6485 6520 6486 6486 6480 6502 6499 6509 7855 7864 7853 7870 7869 7890 7864 7866 7872 7866 7863 7864 7856 7869 7858 7884 7860 7861 7878 7860 7875 7857 7870 7874 7869 7878 7866 7829 7864 7860 7869 7862 7850 7863 7866 7875 7859 7872 7861 7860 5719 5732 5730 5723 5721 5729 5740 5717 5730 5744 5743 5722 5737 5732 5744 5743 5732 5719 5726 5735 5729 5747 5721 5742 5743 5713 5729 5723 5722 5730 5730 5725 5734 5728 5737 5735 5744 5734 5737 5731
5169 5167 5176 5173 5153 5166 5152 5151 5165 5149 5143 5167 5171 5161 5160 5148 5158 5165 5162 5145 5152 5166 5151 5165 5168 5167 5162 5179 5160 5160 5153 5165 5171 5160 5157 5145 5156 5141 5153 5158 6512 6540 6529 6532 6526 6530 6516 6515 6526 6529 6537 6522 6506 6529 6540 6515 6529 6517 6527 6524 6514 6537 6547 6528 6530 6520 6551 6506 6529 6536 6527 6514 6509 6544 6510 6510 6504 6527 6524 6533 7880 7889 7877 7895 7894 7915 7889 7891 7897 7891 7888 7889 7881 7894 7883 7908 7885 7886 7903 7885 7899 7882 7895 7899 7894 7903 7891 7853 7889 7885 7894 7887 7875 7888 7891 7900 7884 7897 7885 7885 5742 5755 5753 5746 5744 5752 5763 5741 5754 5767 5766 5745 5760 5755 5767 5767 5755 5742 5749 5759 5753 5770 5744 5765 5766 5737 5752 5747 5745 5754 5754 5748 5758 5751 5760 5758 5768 5757 5760 5754
20 12 14 16 16 19 20 18 20 29 6 10 9 13 24 27 22 21 25 18 4 18 4 18 13 27 12 16 17 19 10 7 11 12 25 17 30 20 11 4725 4748 4739 4739 4734 4718 4710 4724 4734 4727 4729 4731 4707 4739 4731 4715 4726 4721 4716 4735 4727 4729 4738 4723 4729 4727 4730 4722 4725 4729 4738 4721 4718 4745 4713 4709 4696 4740 4736 4746 2724 2733 2722 2740 2738 2759 2732 2734 2741 2734 2731 2735 2724 2737 2727 2752 2729 2730 2745 2728 2743 2724 2739 2742 2738 2746 2736 2697 2733 2729 2738 2731 2720 2732 2734 2743 2728 2740 2730 2729 4733 4738 4735 4733 4741 4721 4746 4727 4730 4749 4719 4727 4746 4728 4741 4720 4740 4722 4732 4725 4735 4740 4720 4742 4735 4719 4723 4723 4721 4722 4739 4729 4737 4746 4736 4729 4720 4719 4722 4728
14 9 23 4 19 33 3 25 26 15 30 17 13 21 10 3 5 28 22 23 26 19 2 6 8 29 9 9 17 29 14 15 23 28 14 41 16 19 4706 4728 4720 4719 4715 4699 4690 4704 4715 4707 4709 4711 4687 4720 4712 4695 4707 4701 4696 4716 4707 4709 4718 4704 4709 4708 4711 4702 4705 4709 4718 4702 4698 4726 4694 4690 4676 4721 4716 4727 2723 2733 2722 2739 2738 2759 2732 2734 2741 2734 2731 2735 2724 2737 2727 2751 2729 2730 2745 2728 2743 2724 2739 2742 2738 2746 2736 2696 2733 2728 2738 2730 2719 2732 2734 2743 2727 2740 2730 2729 4713 4718 4715 4714 4722 4702 4727 4708 4710 4730 4699 4707 4727 4709 4722 4701 4721 4703 4713 4706 4715 4721 4701 4722 4716 4700 4704 4704 4702 4703 4720 4710 4718 4727 4716 4709 4700 4700 4702 4709
5 24 12 25 31 14 28 34 11 20 16 16 28 24 17 18 32 25 16 27 14 12 10 22 17 17 17 23 21 6 17 22 33 21 41 24 19 4717 4739 4731 4731 4726 4710 4702 4716 4726 4718 4721 4723 4698 4731 4723 4707 4718 4713 4708 4727 4718 4721 4729 4715 4721 4719 4722 4714 4717 4720 4730 4713 4710 4737 4705 4701 4688 4732 4727 4738 2715 2725 2714 2731 2729 2751 2724 2726 2733 2726 2723 2727 2716 2729 2719 2743 2721 2721 2736 2720 2735 2716 2731 2734 2730 2738 2728 2688 2725 2720 2729 2722 2711 2724 2726 2735 2719 2732 2722 2721 4726 4731 4728 4727 4735 4715 4740 4721 4723 4743 4712 4720 4740 4722 4735 4714 4734 4716 4726 4718 4728 4734 4714 4735 4729 4713 4717 4717 4715 4716 4732 4722 4730 4740 4729 4722 4713 4713 4715 4721
23 8 22 32 10 27 31 10 23 15 14 25 19 12 13 30 23 17 26 15 7 6 17 21 13 14 20 23 7 15 22 31 18 41 20 18 4713 4735 4727 4727 4722 4706 4698 4712 4722 4714 4716 4719 4694 4727 4719 4703 4714 4709 4704 4723 4714 4717 4725 4711 4717 4715 4718 4710 4713 4716 4726 4709 4706 4733 4701 4697 4684 4728 4723 4734 2718 2727 2716 2734 2732 2753 2726 2729 2736 2729 2725 2729 2718 2731 2721 2746 2723 2724 2739 2722 2737 2719 2733 2737 2732 2740 2730 2691 2727 2723 2732 2725 2714 2727 2728 2738 2722 2735 2724 2723 4722 4727 4724 4723 4730 4711 4735 4717 4719 4738 4708 4716 4735 4717 4730 4709 4730 4711 4721 4714 4724 4729 4709 4731 4724 4708 4712 4712 4710 4711 4728 4718 4726 4735 4725 4718 4709 4708 4711 4717
19 6 11 20 4 14 14 21 9 10 11 24 23 20 9 3 14 3 12 22 18 26 28 14 14 8 16 19 8 5 9 10 18 10 5 4721 4744 4736 4735 4731 4715 4706 4720 4730 4723 4725 4727 4703 4735 4728 4711 4723 4717 4712 4731 4723 4725 4734 4720 4725 4723 4727 4718 4721 4725 4734 4718 4714 4742 4710 4705 4692 4737 4732 4743 2739 2749 2738 2755 2753 2775 2748 2750 2757 2750 2746 2751 2740 2753 2743 2767 2745 2745 2760 2744 2759 2740 2755 2758 2753 2762 2752 2712 2749 2744 2753 2746 2735 2748 2750 2759 2743 2756 2746 2745 4726 4731 4728 4727 4735 4715 4740 4721 4723 4742 4712 4720 4739 4721 4734 4713 4734 4715 4725 4718 4728 4734 4713 4735 4728 4712 4716 4716 4714 4715 4732 4722 4730 4739 4729 4722 4713 4712 4715 4721
16 29 3 21 24 10 26 12 9 18 12 6 6 25 18 18 22 15 3 3 12 26 6 7 14 24 11 11 19 25 11 37 14 15 4710 4732 4724 4723 4719 4702 4694 4708 4719 4711 4713 4715 4691 4723 4716 4699 4711 4705 4700 4719 4711 4713 4722 4708 4713 4711 4715 4706 4709 4713 4722 4706 4702 4730 4698 4693 4680 4725 4720 4731 2725 2734 2723 2741 2739 2760 2733 2735 2742 2735 2732 2736 2725 2738 2728 2753 2730 2731 2746 2729 2744 2726 2740 2744 2739 2747 2737 2698 2734 2730 2739 2732 2721 2734 2735 2745 2729 2742 2731 2730 4717 4722 4719 4718 4726 4706 4731 4712 4714 4733 4703 4711 4730 4712 4725 4705 4725 4707 4716 4709 4719 4725 4704 4726 4719 4703 4707 4707 4705 4706 4723 4713 4721 4730 4720 4713 4704 4704 4706 4712
17 16 6 10 15 26 10 8 6 18 19 16 8 3 18 9 15 19 16 21 31 10 10 3 21 19 8 10 9 5 23 5 8 4715 4738 4729 4729 4725 4708 4700 4714 4724 4717 4719 4721 4697 4729 4722 4705 4717 4711 4706 4725 4717 4719 4728 4714 4719 4717 4721 4712 4715 4719 4728 4712 4708 4736 4704 4699 4686 4730 4726 4737 2740 2749 2738 2756 2754 2775 2748 2750 2757 2750 2747 2751 2740 2753 2743 2768 2745 2746 2761 2744 2759 2740 2755 2759 2754 2762 2752 2713 2749 2745 2754 2747 2736 2749 2750 2760 2744 2757 2746 2745 4720 4725 4722 4721 4728 4709 4733 4714 4717 4736 4706 4714 4733 4715 4728 4707 4728 4709 4719 4712 4722 4728 4707 4729 4722 4706 4710 4710 4708 4709 4726 4716 4724 4733 4723 4716 4707 4706 4709 4715
30 12 22 21 20 17 20 21 35 34 31 14 14 17 9 17 32 28 37 28 25 25 20 14 25 18 10 13 21 10 22 14 4732 4755 4746 4746 4741 4725 4717 4731 4741 4733 4736 4738 4713 4746 4738 4722 4733 4728 4723 4742 4734 4736 4745 4730 4736 4734 4737 4729 4732 4736 4745 4728 4725 4752 4720 4716 4703 4747 4743 4753 2743 2752 2741 2759 2757 2778 2751 2753 2760 2753 2750 2754 2743 2756 2746 2771 2748 2749 2764 2747 2762 2743 2758 2761 2757 2765 2755 2716 2752 2748 2757 2750 2739 2752 2753 2762 2747 2759 2749 2748 4736 4741 4738 4736 4744 4724 4749 4730 4733 4752 4722 4730 4749 4731 4744 4723 4743 4725 4735 4728 4738 4743 4723 4745 4738 4722 4726 4726 4724 4725 4742 4732 4740 4749 4739 4732 4723 4722 4725 4731
22 23 13 28 14 10 18 10 4 3 25 19 21 23 17 4 5 9 29 6 6 14 26 13 12 20 25 11 38 13 16 4707 4730 4721 4721 4716 4700 4692 4706 4716 4708 4711 4713 4688 4721 4713 4697 4708 4703 4698 4717 4709 4711 4720 4705 4711 4709 4712 4704 4707 4711 4720 4703 4700 4727 4695 4691 4678 4722 4718 4728 2726 2735 2724 2742 2740 2761 2734 2737 2744 2737 2733 2737 2726 2739 2729 2754 2731 2732 2747 2730 2745 2727 2741 2745 2740 2748 2739 2699 2735 2731 2740 2733 2722 2735 2736 2746 2730 2743 2732 2732 4715 4720 4717 4715 4723 4703 4728 4709 4711 4731 4701 4708 4728 4710 4723 4702 4722 4704 4714 4707 4717 4722 4702 4724 4717 4701 4705 4705 4703 4704 4721 4711 4719 4728 4717 4710 4702 4701 4704 4710
11 18 25 13 13 9 24 25 21 4 3 18 4 16 25 21 27 32 16 16 9 20 22 12 9 4 11 17 10 9 4720 4742 4734 4734 4729 4713 4705 4719 4729 4721 4724 4726 4701 4734 4726 4710 4721 4716 4711 4730 4721 4724 4732 4718 4724 4722 4725 4717 4720 4723 4733 4716 4713 4740 4708 4704 4691 4735 4730 4741 2743 2753 2742 2759 2757 2779 2752 2754 2761 2754 2751 2755 2744 2757 2747 2771 2749 2749 2764 2748 2763 2744 2759 2762 2758 2766 2756 2716 2753 2748 2757 2750 2739 2752 2754 2763 2747 2760 2750 2749 4724 4729 4726 4724 4732 4712 4737 4718 4720 4740 4710 4717 4737 4719 4732 4711 4731 4713 4723 4716 4726 4731 4711 4733 4726 4710 4714 4714 4712 4713 4730 4720 4728 4737 4727 4720 4711 4710 4713 4719
25 35 20 18 6 21 24 21 8 11 28 15 25 27 25 25 41 18 17 11 30 29 18 19 9 13 23 10 17 4711 4733 4725 4724 4720 4704 4695 4709 4720 4712 4714 4716 4692 4725 4717 4701 4712 4706 4702 4721 4712 4714 4723 4709 4715 4713 4716 4708 4711 4714 4724 4707 4703 4731 4699 4695 4682 4726 4721 4732 2749 2758 2747 2765 2763 2784 2757 2759 2766 2759 2756 2760 2749 2762 2752 2777 2754 2755 2770 2753 2768 2749 2764 2768 2763 2771 2761 2722 2758 2754 2763 2756 2745 2757 2759 2768 2753 2766 2755 2754 4713 4718 4716 4714 4722 4702 4727 4708 4710 4730 4700 4707 4727 4709 4722 4701 4721 4703 4713 4706 4715 4721 4701 4723 4716 4700 4704 4704 4702 4703 4720 4710 4718 4727 4716 4709 4701 4700 4703 4709
16 5 8 20 21 16 15 22 15 8 17 5 13 8 22 18 11 11 14 14 5 7 11 22 12 31 15 9 4720 4742 4734 4734 4729 4713 4705 4719 4729 4721 4724 4726 4701 4734 4726 4710 4721 4716 4711 4730 4721 4724 4732 4718 4724 4722 4725 4717 4720 4723 4733 4716 4713 4740 4708 4704 4691 4735 4730 4741 2725 2735 2724 2741 2740 2761 2734 2736 2743 2736 2733 2737 2726 2739 2729 2754 2731 2732 2747 2730 2745 2726 2741 2744 2740 2748 2738 2698 2735 2730 2740 2732 2722 2734 2736 2745 2730 2742 2732 2731 4727 4732 4729 4728 4736 4716 4741 4722 4724 4743 4713 4721 4740 4722 4735 4715 4735 4717 4726 4719 4729 4735 4714 4736 4729 4713 4717 4717 4715 4716 4733 4723 4731 4740 4730 4723 4714 4714 4716 4722
17 22 32 37 32 31 29 24 8 22 12 28 23 37 9 26 26 27 6 16 20 17 29 26 30 28 18 4735 4758 4749 4749 4744 4728 4720 4734 4744 4737 4739 4741 4717 4749 4741 4725 4736 4731 4726 4745 4737 4739 4748 4733 4739 4737 4740 4732 4735 4739 4748 4731 4728 4755 4723 4719 4706 4750 4746 4756 2723 2732 2721 2739 2737 2758 2731 2733 2741 2733 2730 2735 2723 2736 2726 2751 2728 2729 2744 2727 2742 2723 2738 2742 2737 2745 2736 2696 2732 2728 2737 2730 2719 2732 2733 2743 2727 2740 2729 2728 4743 4748 4745 4743 4751 4731 4756 4737 4739 4759 4729 4736 4756 4738 4751 4730 4750 4732 4742 4735 4745 4750 4730 4752 4745 4729 4733 4733 4731 4732 4749 4739 4747 4756 4746 4739 4730 4729 4732 4738
5 15 21 18 16 17 10 9 11 5 15 11 22 21 10 10 10 13 10 3 7 17 9 26 12 3 4720 4743 4734 4734 4729 4713 4705 4719 4729 4722 4724 4726 4702 4734 4727 4710 4721 4716 4711 4730 4722 4724 4733 4718 4724 4722 4725 4717 4720 4724 4733 4716 4713 4740 4708 4704 4691 4735 4731 4741 2731 2740 2729 2747 2745 2766 2739 2741 2749 2741 2738 2742 2731 2744 2734 2759 2736 2737 2752 2735 2750 2731 2746 2750 2745 2753 2743 2704 2740 2736 2745 2738 2727 2740 2741 2751 2735 2748 2737 2736 4726 4731 4728 4727 4735 4715 4740 4721 4723 4743 4712 4720 4740 4722 4735 4714 4734 4716 4726 4719 4728 4734 4714 4735 4729 4713 4717 4717 4715 4716 4733 4722 4731 4740 4729 4722 4713 4713 4715 4722
12 16 13 11 16 10 13 13 10 12 8 18 25 5 5 7 19 11 2 11 17 5 28 8 6 4715 4737 4729 4729 4724 4708 4700 4714 4724 4716 4719 4721 4696 4729 4721 4705 4716 4711 4706 4725 4717 4719 4727 4713 4719 4717 4720 4712 4715 4718 4728 4711 4708 4735 4703 4699 4686 4730 4726 4736 2731 2741 2730 2747 2746 2767 2740 2742 2749 2742 2739 2743 2732 2745 2735 2760 2737 2738 2753 2736 2751 2732 2747 2750 2746 2754 2744 2705 2741 2737 2746 2738 2728 2740 2742 2751 2736 2748 2738 2737 4721 4726 4723 4722 4730 4710 4735 4716 4718 4738 4707 4715 4735 4717 4730 4709 4729 4711 4721 4713 4723 4729 4708 4730 4724 4708 4712 4712 4710 4710 4727 4717 4725 4735 4724 4717 4708 4708 4710 4716
17 19 16 9 8 23 13 20 21 19 20 36 12 12 5 27 24 13 16 10 8 25 5 13 4711 4733 4725 4725 4720 4704 4696 4709 4720 4712 4714 4716 4692 4725 4717 4701 4712 4706 4702 4721 4712 4714 4723 4709 4715 4713 4716 4708 4711 4714 4724 4707 4703 4731 4699 4695 4682 4726 4721 4732 2743 2753 2741 2759 2757 2778 2752 2754 2761 2754 2750 2755 2744 2757 2746 2771 2749 2749 2764 2748 2763 2744 2759 2762 2757 2766 2756 2716 2752 2748 2757 2750 2739 2752 2753 2763 2747 2760 2749 2749 4715 4720 4717 4715 4723 4703 4728 4709 4712 4731 4701 4709 4728 4710 4723 4702 4722 4704 4714 4707 4717 4722 4702 4724 4717 4701 4705 4705 4703 4704 4721 4711 4719 4728 4718 4711 4702 4701 4704 4710
7 6 25 22 29 27 25 12 15 4 38 11 11 15 34 23 18 26 26 14 41 14 22 4699 4722 4713 4713 4708 4692 4684 4698 4708 4701 4703 4705 4681 4713 4706 4689 4700 4695 4690 4709 4701 4703 4712 4697 4703 4701 4704 4696 4699 4703 4712 4696 4692 4720 4688 4683 4670 4714 4710 4720 2731 2741 2730 2747 2746 2767 2740 2742 2749 2742 2739 2743 2732 2745 2735 2760 2737 2738 2753 2736 2751 2732 2747 2750 2746 2754 2744 2704 2741 2736 2746 2738 2727 2740 2742 2751 2736 2748 2738 2737 4706 4711 4708 4707 4714 4695 4719 4700 4703 4722 4692 4700 4719 4701 4714 4693 4714 4695 4705 4698 4708 4713 4693 4715 4708 4692 4696 4696 4694 4695 4712 4702 4710 4719 4709 4702 4693 4692 4695 4701
3 27 22 24 26 21 5 9 6 32 9 9 16 30 16 16 24 28 14 41 15 20 4703 4726 4718 4717 4713 4696 4688 4702 4712 4705 4707 4709 4685 4717 4710 4693 4705 4699 4694 4713 4705 4707 4716 4702 4707 4705 4709 4700 4703 4707 4716 4700 4696 4724 4692 4687 4674 4719 4714 4725 2725 2735 2724 2741 2740 2761 2734 2736 2743 2736 2733 2737 2726 2739 2729 2754 2731 2732 2747 2730 2745 2726 2741 2744 2740 2748 2738 2698 2735 2730 2740 2732 2721 2734 2736 2745 2729 2742 2732 2731 4711 4716 4713 4712 4720 4700 4725 4706 4708 4727 4697 4705 4724 4706 4719 4698 4719 4701 4710 4703 4713 4719 4698 4720 4713 4697 4701 4701 4699 4700 4717 4707 4715 4724 4714 4707 4698 4698 4700 4706
24 19 23 23 19 6 8 7 32 6 6 13 29 16 13 21 25 11 38 12 17 4705 4727 4719 4719 4714 4698 4690 4704 4714 4706 4709 4711 4686 4719 4711 4695 4706 4701 4696 4715 4706 4709 4717 4703 4709 4707 4710 4702 4705 4708 4718 4701 4698 4725 4693 4689 4676 4720 4715 4726 2728 2738 2727 2744 2742 2764 2737 2739 2746 2739 2736 2740 2729 2742 2732 2756 2734 2734 2750 2733 2748 2729 2744 2747 2743 2751 2741 2701 2738 2733 2742 2735 2724 2737 2739 2748 2732 2745 2735 2734 4712 4717 4714 4713 4721 4701 4726 4707 4709 4728 4698 4706 4725 4707 4720 4699 4720 4701 4711 4704 4714 4720 4699 4721 4714 4698 4702 4702 4700 4701 4718 4708 4716 4725 4715 4708 4699 4698 4701 4707
7 23 8 20 28 25 29 36 19 18 11 24 27 16 13 1 13 16 12 13 4719 4741 4733 4732 4728 4712 4703 4717 4728 4720 4722 4724 4700 4733 4725 4709 4720 4714 4710 4729 4720 4722 4731 4717 4723 4721 4724 4716 4719 4722 4732 4715 4711 4739 4707 4703 4690 4734 4729 4740 2747 2757 2746 2763 2762 2783 2756 2758 2765 2758 2755 2759 2748 2761 2751 2776 2753 2754 2769 2752 2767 2748 2763 2766 2762 2770 2760 2720 2757 2752 2762 2754 2743 2756 2758 2767 2751 2764 2754 2753 4722 4727 4724 4722 4730 4710 4735 4716 4719 4738 4708 4715 4735 4717 4730 4709 4729 4711 4721 4714 4724 4729 4709 4731 4724 4708 4712 4712 4710 4711 4728 4718 4726 4735 4725 4718 4709 4708 4711 4717
16 5 14 21 18 25 30 13 13 6 19 20 9 8 7 8 19 8 7 4719 4741 4733 4732 4728 4712 4703 4717 4728 4720 4722 4724 4700 4733 4725 4709 4720 4714 4710 4729 4720 4722 4731 4717 4722 4721 4724 4716 4719 4722 4732 4715 4711 4739 4707 4703 4689 4734 4729 4740 2740 2750 2739 2756 2755 2776 2749 2751 2758 2751 2748 2752 2741 2754 2744 2769 2746 2747 2762 2745 2760 2741 2756 2759 2755 2763 2753 2713 2750 2745 2755 2747 2737 2749 2751 2760 2745 2757 2747 2746 4723 4728 4725 4724 4732 4712 4737 4718 4720 4739 4709 4717 4736 4718 4731 4710 4731 4712 4722 4715 4725 4731 4710 4732 4725 4709 4713 4713 4711 4712 4729 4719 4727 4736 4726 4719 4710 4710 4712 4718
15 4 21 16 30 14 18 18 18 6 10 11 10 22 18 27 20 10 4728 4750 4742 4741 4737 4721 4712 4726 4737 4729 4731 4733 4709 4742 4734 4718 4729 4723 4719 4738 4729 4731 4740 4726 4731 4730 4733 4725 4728 4731 4741 4724 4720 4748 4716 4712 4699 4743 4738 4749 2727 2736 2725 2743 2741 2762 2735 2737 2744 2737 2734 2738 2727 2740 2730 2755 2732 2733 2748 2731 2746 2727 2742 2746 2741 2749 2739 2700 2736 2732 2741 2734 2723 2736 2737 2746 2731 2744 2733 2732 4735 4739 4737 4735 4743 4723 4748 4729 4731 4751 4721 4728 4748 4730 4743 4722 4742 4724 4734 4727 4737 4742 4722 4744 4737 4721 4725 4725 4723 4724 4741 4731 4739 4748 4737 4730 4722 4721 4724 4730
14 25 21 29 29 17 17 11 16 21 11 6 7 13 15 13 8 4724 4746 4738 4737 4733 4717 4708 4722 4733 4725 4727 4729 4705 4738 4730 4713 4725 4719 4715 4734 4725 4727 4736 4722 4727 4726 4729 4720 4723 4727 4737 4720 4716 4744 4712 4708 4694 4739 4734 4745 2742 2751 2740 2758 2756 2777 2750 2752 2759 2752 2749 2753 2742 2755 2745 2770 2747 2748 2763 2746 2761 2742 2757 2760 2756 2764 2754 2715 2751 2747 2756 2749 2738 2750 2752 2761 2746 2758 2748 2747 4728 4732 4730 4728 4736 4716 4741 4722 4724 4744 4714 4721 4741 4723 4736 4715 4735 4717 4727 4720 4730 4735 4715 4737 4730 4714 4718 4718 4716 4717 4734 4724 4732 4741 4730 4723 4715 4714 4717 4723
18 13 26 16 14 14 15 9 8 8 8 20 14 27 17 7 4724 4746 4738 4738 4733 4717 4709 4723 4733 4725 4728 4730 4705 4738 4730 4714 4725 4720 4715 4734 4726 4728 4736 4722 4728 4726 4729 4721 4724 4727 4737 4720 4717 4744 4712 4708 4695 4739 4735 4745 2728 2737 2726 2744 2742 2763 2736 2738 2746 2738 2735 2739 2728 2741 2731 2756 2733 2734 2749 2732 2747 2728 2743 2747 2742 2750 2740 2701 2737 2733 2742 2735 2724 2737 2738 2748 2732 2745 2734 2733 4731 4736 4733 4732 4739 4720 4744 4725 4728 4747 4717 4725 4744 4726 4739 4718 4739 4720 4730 4723 4733 4738 4718 4740 4733 4717 4721 4721 4719 4720 4737 4727 4735 4744 4734 4727 4718 4717 4720 4726
5 11 27 9 9 17 27 12 14 22 28 14 40 16 18 4708 4730 4722 4721 4717 4701 4692 4706 4717 4709 4711 4713 4689 4722 4714 4697 4709 4703 4698 4718 4709 4711 4720 4706 4711 4710 4713 4704 4707 4711 4720 4704 4700 4728 4696 4692 4678 4723 4718 4729 2722 2732 2721 2738 2737 2758 2731 2733 2740 2733 2730 2734 2723 2736 2726 2750 2728 2729 2744 2727 2742 2723 2738 2741 2737 2745 2735 2695 2732 2727 2737 2729 2718 2731 2733 2742 2726 2739 2729 2728 4716 4721 4718 4716 4724 4704 4729 4710 4713 4732 4702 4710 4729 4711 4724 4703 4723 4705 4715 4708 4718 4723 4703 4725 4718 4702 4706 4706 4704 4705 4722 4712 4720 4729 4719 4712 4703 4702 4705 4711
14 24 7 8 14 22 8 10 18 25 12 36 14 14 4712 4734 4726 4726 4721 4705 4697 4711 4721 4713 4716 4718 4693 4726 4718 4702 4713 4708 4703 4722 4713 4716 4724 4710 4716 4714 4717 4709 4712 4715 4725 4708 4705 4732 4700 4696 4683 4727 4722 4733 2724 2733 2722 2740 2738 2759 2732 2734 2742 2734 2731 2735 2724 2737 2727 2752 2729 2730 2745 2728 2743 2725 2739 2743 2738 2746 2736 2697 2733 2729 2738 2731 2720 2733 2734 2744 2728 2741 2730 2729 4720 4725 4722 4720 4728 4708 4733 4714 4717 4736 4706 4714 4733 4715 4728 4707 4727 4709 4719 4712 4722 4727 4707 4729 4722 4706 4710 4710 4708 4709 4726 4716 4724 4733 4723 4716 4707 4706 4709 4715
38 13 13 19 35 22 20 28 30 17 44 17 24 4698 4720 4712 4712 4707 4691 4683 4697 4707 4699 4702 4704 4679 4712 4704 4688 4699 4694 4689 4708 4700 4702 4710 4696 4702 4700 4703 4695 4698 4701 4711 4694 4691 4718 4686 4682 4669 4713 4709 4719 2727 2737 2726 2743 2742 2763 2736 2738 2745 2738 2735 2739 2728 2741 2731 2756 2733 2734 2749 2732 2747 2728 2743 2746 2742 2750 2740 2700 2737 2732 2742 2734 2723 2736 2738 2747 2731 2744 2734 2733 4705 4710 4707 4706 4714 4694 4719 4700 4702 4722 4691 4699 4719 4701 4714 4693 4713 4695 4705 4698 4707 4713 4693 4714 4708 4692 4696 4696 4694 4695 4712 4702 4710 4719 4708 4701 4692 4692 4694 4701
28 29 31 14 16 24 23 36 30 38 33 23 4734 4756 4748 4747 4743 4727 4718 4732 4743 4735 4737 4739 4715 4748 4740 4724 4735 4729 4725 4744 4735 4737 4746 4732 4737 4736 4739 4731 4733 4737 4747 4730 4726 4754 4722 4718 4704 4749 4744 4755 2714 2724 2713 2730 2729 2750 2723 2725 2732 2725 2722 2726 2715 2728 2718 2742 2720 2721 2735 2719 2734 2715 2730 2733 2729 2737 2727 2687 2724 2719 2729 2721 2711 2723 2725 2734 2719 2731 2721 2720 4743 4748 4745 4744 4752 4732 4756 4738 4740 4759 4729 4737 4756 4738 4751 4730 4751 4732 4742 4735 4745 4750 4730 4752 4745 4729 4733 4733 4731 4732 4749 4739 4747 4756 4746 4739 4730 4729 4732 4738
1 8 23 13 7 15 19 5 32 7 11 4711 4733 4725 4724 4720 4704 4695 4709 4720 4712 4714 4716 4692 4725 4717 4700 4712 4706 4701 4721 4712 4714 4723 4709 4714 4713 4716 4707 4710 4714 4723 4707 4703 4731 4699 4695 4681 4726 4721 4732 2731 2740 2729 2747 2745 2766 2739 2741 2749 2741 2738 2742 2731 2744 2734 2759 2736 2737 2752 2735 2750 2732 2746 2750 2745 2753 2743 2704 2740 2736 2745 2738 2727 2740 2741 2751 2735 2748 2737 2736 4717 4722 4719 4718 4726 4706 4730 4712 4714 4733 4703 4711 4730 4712 4725 4704 4725 4706 4716 4709 4719 4725 4704 4726 4719 4703 4707 4707 4705 4706 4723 4713 4721 4730 4720 4713 4704 4703 4706 4712
7 23 14 7 15 19 5 32 7 11 4710 4733 4724 4724 4720 4703 4695 4709 4719 4712 4714 4716 4692 4724 4717 4700 4711 4706 4701 4720 4712 4714 4723 4708 4714 4712 4716 4707 4710 4714 4723 4707 4703 4731 4699 4694 4681 4725 4721 4732 2731 2741 2730 2747 2745 2767 2740 2742 2749 2742 2739 2743 2732 2745 2735 2759 2737 2737 2753 2736 2751 2732 2747 2750 2746 2754 2744 2704 2741 2736 2745 2738 2727 2740 2742 2751 2735 2748 2738 2737 4717 4722 4719 4717 4725 4705 4730 4711 4713 4733 4703 4710 4730 4712 4725 4704 4724 4706 4716 4709 4719 4724 4704 4726 4719 4703 4707 4707 4705 4706 4723 4713 4721 4730 4719 4712 4704 4703 4706 4712
22 18 8 12 12 3 25 2 9 4713 4735 4727 4727 4722 4706 4698 4712 4722 4714 4717 4719 4694 4727 4719 4703 4714 4709 4704 4723 4714 4717 4726 4711 4717 4715 4718 4710 4713 4716 4726 4709 4706 4733 4701 4697 4684 4728 4724 4734 2738 2748 2736 2754 2752 2773 2747 2749 2756 2749 2745 2750 2738 2752 2741 2766 2744 2744 2759 2743 2758 2739 2754 2757 2752 2761 2751 2711 2747 2743 2752 2745 2734 2747 2748 2758 2742 2755 2744 2744 4718 4723 4720 4719 4727 4707 4732 4713 4715 4734 4704 4712 4731 4713 4726 4705 4726 4708 4717 4710 4720 4726 4705 4727 4720 4704 4708 4708 4706 4707 4724 4714 4722 4731 4721 4714 4705 4705 4707 4713
16 16 11 23 22 24 24 14 4734 4756 4748 4747 4743 4726 4718 4732 4742 4735 4737 4739 4715 4747 4740 4723 4735 4729 4724 4743 4735 4737 4746 4732 4737 4735 4739 4730 4733 4737 4746 4730 4726 4754 4722 4717 4704 4749 4744 4755 2729 2738 2727 2745 2743 2764 2737 2739 2746 2739 2736 2740 2729 2742 2732 2757 2734 2735 2750 2733 2748 2729 2744 2747 2743 2751 2741 2702 2738 2734 2743 2736 2725 2737 2739 2748 2733 2745 2735 2734 4740 4745 4742 4740 4748 4728 4753 4734 4737 4756 4726 4734 4753 4735 4748 4727 4747 4729 4739 4732 4742 4747 4727 4749 4742 4726 4730 4730 4728 4729 4746 4736 4744 4753 4743 4736 4727 4726 4729 4735
11 16 27 16 35 19 13 4719 4742 4733 4733 4729 4712 4704 4718 4728 4721 4723 4725 4701 4733 4726 4709 4720 4715 4710 4729 4721 4723 4732 4717 4723 4721 4724 4716 4719 4723 4732 4716 4712 4740 4708 4703 4690 4734 4730 4741 2721 2730 2719 2737 2735 2756 2729 2732 2739 2732 2728 2732 2721 2734 2724 2749 2726 2727 2742 2725 2740 2722 2736 2740 2735 2743 2733 2694 2730 2726 2735 2728 2717 2730 2731 2741 2725 2738 2727 2726 4727 4732 4729 4728 4736 4716 4741 4722 4724 4744 4713 4721 4741 4723 4736 4715 4735 4717 4727 4720 4729 4735 4715 4736 4730 4714 4718 4718 4716 4717 4734 4724 4732 4741 4730 4723 4714 4714 4716 4723
8 16 6 26 9 4 4718 4740 4732 4731 4727 4711 4702 4716 4727 4719 4721 4723 4699 4732 4724 4707 4719 4713 4708 4728 4719 4721 4730 4716 4721 4720 4723 4714 4717 4721 4730 4714 4710 4738 4706 4702 4688 4733 4728 4739 2732 2741 2730 2748 2746 2767 2740 2743 2750 2743 2739 2744 2732 2745 2735 2760 2737 2738 2753 2736 2751 2733 2747 2751 2746 2754 2745 2705 2741 2737 2746 2739 2728 2741 2742 2752 2736 2749 2738 2738 4723 4728 4725 4724 4732 4712 4737 4718 4720 4740 4709 4717 4737 4719 4732 4711 4731 4713 4723 4716 4725 4731 4711 4732 4726 4710 4714 4714 4712 4713 4730 4720 4728 4737 4726 4719 4711 4710 4712 4719
13 12 19 14 4 4725 4747 4739 4738 4734 4718 4709 4723 4734 4726 4728 4730 4706 4739 4731 4715 4726 4720 4716 4735 4726 4728 4737 4723 4728 4727 4730 4722 4724 4728 4738 4721 4717 4745 4713 4709 4695 4740 4735 4746 2736 2745 2734 2752 2750 2771 2744 2746 2754 2746 2743 2747 2736 2749 2739 2764 2741 2742 2757 2740 2755 2736 2751 2755 2750 2758 2748 2709 2745 2741 2750 2743 2732 2745 2746 2756 2740 2753 2742 2741 4730 4735 4732 4730 4738 4718 4743 4724 4727 4746 4716 4724 4743 4725 4738 4717 4738 4719 4729 4722 4732 4737 4717 4739 4732 4716 4720 4720 4718 4719 4736 4726 4734 4743 4733 4726 4717 4716 4719 4725
14 15 13 14 4720 4742 4734 4733 4729 4713 4705 4718 4729 4721 4723 4725 4701 4734 4726 4710 4721 4715 4711 4730 4721 4723 4732 4718 4724 4722 4725 4717 4720 4723 4733 4716 4712 4740 4708 4704 4691 4735 4730 4741 2748 2757 2746 2764 2762 2783 2756 2758 2765 2758 2755 2759 2748 2761 2751 2776 2753 2754 2769 2752 2767 2748 2763 2767 2762 2770 2760 2721 2757 2753 2762 2755 2744 2757 2758 2768 2752 2765 2754 2753 4723 4727 4725 4723 4731 4711 4736 4717 4719 4739 4709 4716 4736 4718 4731 4710 4730 4712 4722 4715 4725 4730 4710 4732 4725 4709 4713 4713 4711 4712 4729 4719 4727 4736 4726 4718 4710 4709 4712 4718
27 3 8 4713 4735 4727 4726 4722 4706 4697 4711 4722 4714 4716 4718 4694 4727 4719 4702 4714 4708 4703 4723 4714 4716 4725 4711 4716 4715 4718 4709 4712 4716 4725 4709 4705 4733 4701 4697 4683 4728 4723 4734 2736 2745 2734 2752 2750 2771 2744 2746 2753 2746 2743 2747 2736 2749 2739 2764 2741 2742 2757 2740 2755 2736 2751 2755 2750 2758 2748 2709 2745 2741 2750 2743 2732 2744 2746 2756 2740 2753 2742 2741 4718 4723 4720 4719 4727 4707 4731 4713 4715 4734 4704 4712 4731 4713 4726 4705 4726 4707 4717 4710 4720 4726 4705 4727 4720 4704 4708 4708 4706 4707 4724 4714 4722 4731 4721 4714 4705 4704 4707 4713
27 23 4734 4756 4748 4748 4743 4727 4719 4732 4743 4735 4738 4739 4715 4748 4740 4724 4735 4729 4725 4744 4735 4738 4746 4732 4738 4736 4739 4731 4734 4737 4747 4730 4726 4754 4722 4718 4705 4749 4744 4755 2753 2762 2751 2769 2767 2788 2761 2763 2770 2763 2760 2764 2753 2766 2756 2781 2758 2759 2774 2757 2772 2753 2768 2771 2767 2775 2765 2726 2762 2758 2767 2759 2749 2761 2763 2772 2757 2769 2759 2758 4735 4740 4737 4736 4744 4724 4749 4730 4732 4752 4721 4729 4749 4731 4744 4723 4743 4725 4735 4728 4737 4743 4723 4744 4738 4722 4726 4726 4724 4725 4741 4731 4740 4749 4738 4731 4722 4722 4724 4730
10 4711 4733 4725 4725 4720 4704 4696 4710 4720 4712 4715 4717 4692 4725 4717 4701 4712 4707 4702 4721 4712 4715 4723 4709 4715 4713 4716 4708 4711 4714 4724 4707 4704 4731 4699 4695 4682 4726 4722 4732 2738 2748 2736 2754 2752 2774 2747 2749 2756 2749 2745 2750 2739 2752 2741 2766 2744 2744 2759 2743 2758 2739 2754 2757 2752 2761 2751 2711 2748 2743 2752 2745 2734 2747 2749 2758 2742 2755 2744 2744 4716 4721 4718 4717 4725 4705 4730 4711 4713 4732 4702 4710 4729 4711 4724 4703 4724 4706 4715 4708 4718 4724 4703 4725 4718 4702 4706 4706 4704 4705 4722 4712 4720 4729 4719 4712 4703 4703 4705 4711
4721 4743 4735 4735 4730 4714 4706 4719 4730 4722 4724 4727 4702 4735 4727 4711 4722 4716 4712 4731 4722 4724 4733 4719 4725 4723 4726 4718 4721 4724 4734 4717 4713 4741 4709 4705 4692 4736 4731 4742 2734 2744 2733 2750 2748 2770 2743 2745 2752 2745 2741 2746 2735 2748 2738 2762 2740 2740 2755 2739 2754 2735 2750 2753 2748 2757 2747 2707 2744 2739 2748 2741 2730 2743 2745 2754 2738 2751 2741 2740 4726 4731 4728 4727 4735 4715 4740 4721 4723 4743 4712 4720 4740 4722 4735 4714 4734 4716 4726 4718 4728 4734 4713 4735 4729 4713 4717 4717 4715 4715 4732 4722 4730 4740 4729 4722 4713 4713 4715 4721
29 18 20 14 30 24 5 14 21 29 10 20 18 32 16 21 12 28 12 2 29 38 22 21 9 47 6 23 29 16 7 8 33 14 19 32 17 13 24 5497 5495 5484 5490 5503 5510 5503 5506 5498 5502 5509 5472 5501 5506 5495 5512 5491 5498 5526 5505 5504 5505 5492 5507 5500 5511 5486 5483 5494 5497 5497 5498 5482 5487 5504 5507 5492 5508 5487 5492 943 932 932 939 947 923 929 941 928 926 905 936 932 925 920 906 934 936 935 918 933 916 932 923 917 940 925 931 932 922 934 933 928 942 924 922 904 916 914 926
10 9 15 31 38 27 15 21 22 19 42 11 21 33 21 28 33 16 27 22 21 25 19 22 33 34 23 22 12 29 34 8 36 39 52 13 16 7 5508 5505 5495 5501 5514 5520 5513 5517 5509 5513 5519 5482 5512 5516 5505 5522 5502 5508 5536 5515 5515 5515 5502 5517 5510 5521 5496 5494 5504 5507 5507 5509 5493 5497 5514 5517 5502 5518 5497 5502 964 952 952 959 967 944 949 962 948 946 925 956 952 945 940 926 954 956 955 939 953 936 952 943 937 961 945 952 953 943 955 954 948 962 945 942 925 937 935 946
4 5 27 30 17 5 16 20 9 33 1 21 24 16 19 28 6 16 20 24 19 14 12 36 24 18 20 2 19 23 15 26 30 43 5 6 7 5504 5501 5491 5497 5510 5516 5509 5513 5505 5509 5515 5478 5508 5513 5501 5519 5498 5504 5532 5511 5511 5512 5498 5514 5506 5517 5493 5490 5500 5503 5503 5505 5489 5493 5510 5513 5498 5514 5493 5498 956 945 945 952 960 937 941 954 941 938 918 949 945 938 933 919 947 949 948 931 946 929 945 936 930 953 938 944 945 935 947 946 941 955 937 934 917 929 927 939
6 25 29 18 6 14 17 10 33 5 17 24 14 19 25 9 18 17 21 17 11 13 32 26 16 17 5 20 25 13 27 30 43 8 9 9 5502 5499 5489 5495 5508 5514 5507 5511 5502 5506 5513 5476 5506 5510 5499 5516 5496 5502 5530 5509 5509 5509 5496 5511 5504 5515 5490 5488 5498 5501 5501 5503 5487 5491 5508 5511 5496 5512 5491 5496 960 948 948 956 964 940 945 958 944 942 921 952 948 942 936 922 950 952 951 935 949 933 948 939 934 957 941 948 949 939 951 950 945 958 941 938 921 933 931 942
24 25 12 0 12 19 4 28 5 20 19 13 14 24 4 12 19 25 16 11 7 35 20 15 19 4 14 19 18 21 25 38 7 4 12 5500 5497 5487 5493 5506 5512 5505 5509 5501 5505 5511 5474 5504 5508 5497 5514 5494 5500 5528 5507 5507 5508 5494 5510 5502 5513 5489 5486 5496 5499 5499 5501 5485 5489 5506 5509 5494 5510 5489 5494 955 944 944 951 959 935 940 953 940 938 917 948 944 937 932 918 946 948 947 930 945 928 944 935 929 952 937 943 944 934 946 945 940 954 936 933 916 928 926 938
13 24 24 12 11 24 24 28 13 16 11 18 3 27 28 11 21 8 14 22 21 34 9 10 27 23 26 27 22 20 27 31 28 33 5477 5474 5464 5470 5483 5489 5482 5486 5478 5482 5488 5451 5481 5486 5474 5492 5471 5477 5505 5485 5484 5485 5471 5487 5480 5490 5466 5463 5474 5476 5476 5478 5462 5466 5483 5487 5472 5488 5467 5471 971 960 960 967 975 951 957 969 956 954 933 964 960 953 948 933 962 964 963 946 961 944 959 951 945 968 953 959 960 950 963 961 956 970 953 950 932 944 942 954
19 25 17 22 23 11 30 25 7 17 13 10 28 23 22 33 14 19 20 35 26 16 21 29 17 17 36 12 7 15 32 28 37 5475 5472 5462 5468 5481 5487 5480 5484 5476 5480 5486 5449 5479 5484 5472 5490 5469 5475 5503 5483 5482 5483 5470 5485 5478 5488 5464 5461 5472 5474 5475 5476 5460 5464 5481 5485 5470 5486 5465 5469 960 948 949 956 964 940 946 958 944 943 921 952 949 942 937 922 951 952 951 935 949 933 948 940 934 957 942 948 949 939 951 950 945 959 941 938 921 933 931 942
12 16 24 8 18 16 27 12 17 6 23 12 4 24 34 17 16 5 42 10 18 24 15 3 7 30 11 16 29 17 12 23 5493 5491 5480 5487 5500 5506 5499 5503 5494 5498 5505 5468 5498 5502 5491 5508 5488 5494 5522 5501 5501 5501 5488 5503 5496 5507 5482 5480 5490 5493 5493 5494 5478 5483 5500 5503 5488 5504 5483 5488 948 937 937 944 952 928 934 946 933 931 910 941 937 930 925 911 939 941 940 923 938 921 937 928 922 945 930 936 937 927 939 938 933 947 929 926 909 921 919 931
13 19 4 28 5 20 19 13 13 24 3 12 19 26 16 11 7 36 19 15 19 4 14 18 19 21 25 38 7 4 12 5500 5497 5487 5493 5506 5512 5505 5509 5501 5505 5511 5474 5504 5509 5497 5515 5494 5500 5528 5507 5507 5508 5494 5510 5503 5513 5489 5486 5496 5499 5499 5501 5485 5489 5506 5509 5495 5510 5489 5494 955 943 944 951 959 935 940 953 939 937 916 947 943 937 932 917 945 947 946 930 944 928 943 934 929 952 936 943 944 934 946 945 940 954 936 933 916 928 926 937
9 13 24 16 11 14 1 12 12 16 19 9 19 4 2 12 26 26 3 8 16 15 20 20 19 20 31 19 16 22 5488 5485 5475 5481 5494 5500 5493 5497 5489 5493 5499 5462 5492 5497 5485 5503 5482 5488 5516 5496 5495 5496 5483 5498 5491 5501 5477 5474 5485 5487 5488 5489 5473 5478 5495 5498 5483 5499 5478 5482 964 952 953 960 968 944 949 962 949 947 926 956 953 946 941 926 955 956 955 939 953 937 952 944 938 961 946 952 953 943 955 954 949 963 945 942 925 937 935 946
20 31 21 3 21 8 20 13 23 28 0 11 9 9 20 17 34 7 0 21 24 29 17 27 27 37 25 23 25 5486 5483 5473 5479 5492 5498 5491 5495 5487 5491 5497 5460 5490 5495 5483 5501 5480 5486 5514 5494 5493 5494 5480 5496 5489 5499 5475 5472 5483 5485 5485 5487 5471 5475 5492 5496 5481 5497 5476 5480 973 961 961 968 977 953 958 971 957 955 934 965 961 954 949 935 963 965 964 948 962 946 961 952 946 969 954 960 961 952 964 963 958 972 954 951 934 945 944 955
24 8 22 16 13 10 23 5 8 20 28 16 12 4 37 16 15 20 7 10 15 22 18 22 35 10 5 16 5498 5495 5485 5491 5504 5510 5503 5507 5499 5503 5509 5472 5502 5507 5495 5513 5492 5498 5526 5505 5505 5506 5492 5508 5501 5511 5487 5484 5494 5497 5497 5499 5483 5487 5504 5507 5493 5508 5487 5492 953 941 941 948 957 933 938 951 937 935 914 945 941 934 929 915 943 945 944 928 942 926 941 932 926 950 934 940 941 932 944 943 938 952 934 931 914 926 924 935
33 34 10 24 15 21 29 21 31 42 22 26 21 45 20 24 30 32 15 13 43 7 4 12 34 29 40 5477 5474 5464 5470 5483 5489 5482 5486 5478 5482 5488 5452 5481 5486 5474 5492 5471 5477 5505 5485 5484 5485 5472 5487 5480 5490 5466 5463 5474 5476 5477 5478 5462 5467 5484 5487 5472 5488 5467 5471 950 938 939 946 954 930 935 948 934 933 911 942 938 931 927 912 940 942 941 925 939 923 938 930 924 946 931 937 938 928 941 940 935 949 931 928 910 922 921 932
22 24 17 18 28 5 15 21 25 20 14 12 37 23 19 21 1 18 23 16 26 30 43 4 5 7 5504 5501 5491 5497 5510 5516 5509 5513 5505 5509 5516 5479 5508 5513 5502 5519 5498 5504 5532 5512 5511 5512 5499 5514 5507 5517 5493 5490 5501 5504 5504 5505 5489 5494 5511 5514 5499 5515 5494 5499 955 944 944 951 959 936 940 953 940 937 917 948 944 937 932 918 946 948 947 930 945 928 944 935 929 952 937 943 944 934 946 945 940 954 936 933 916 928 926 938
24 11 23 16 24 30 3 8 12 11 22 15 37 10 4 22 27 31 15 30 30 40 25 24 25 5487 5484 5474 5480 5493 5499 5493 5496 5488 5492 5499 5462 5491 5496 5485 5502 5481 5488 5516 5495 5494 5495 5482 5497 5490 5501 5476 5474 5484 5487 5487 5488 5472 5477 5494 5497 5482 5498 5477 5482 975 963 963 971 979 955 960 973 959 957 936 967 963 956 952 937 965 967 966 950 964 948 963 954 949 972 956 962 963 954 966 965 960 974 956 953 936 948 946 957
14 6 14 21 16 21 32 13 16 13 37 19 14 21 23 9 11 33 6 6 19 26 21 31 5482 5479 5469 5475 5488 5494 5487 5491 5483 5487 5493 5457 5486 5491 5479 5497 5476 5482 5510 5490 5489 5490 5477 5492 5485 5495 5471 5468 5479 5481 5482 5483 5467 5472 5489 5492 5477 5493 5472 5476 955 944 944 951 959 935 941 953 940 938 917 948 944 937 932 917 946 947 946 930 945 928 943 935 929 952 937 943 944 934 946 945 940 954 936 933 916 928 926 937
12 11 17 20 8 18 3 3 12 25 26 2 8 16 16 21 20 19 20 32 20 17 23 5488 5485 5475 5481 5494 5500 5493 5497 5488 5492 5499 5462 5492 5496 5485 5502 5482 5488 5516 5495 5495 5495 5482 5497 5490 5501 5476 5474 5484 5487 5487 5488 5473 5477 5494 5497 5482 5498 5477 5482 965 953 954 961 969 945 950 963 949 947 926 957 953 947 942 927 955 957 956 940 954 938 953 945 939 962 946 953 953 944 956 955 950 964 946 943 926 938 936 947
16 15 11 20 30 12 13 7 37 15 13 20 17 4 9 29 8 12 25 20 15 26 5488 5485 5475 5481 5494 5500 5493 5497 5489 5493 5500 5463 5492 5497 5486 5503 5482 5488 5516 5496 5495 5496 5483 5498 5491 5501 5477 5474 5485 5488 5488 5489 5473 5478 5495 5498 5483 5499 5478 5483 954 942 942 949 957 934 939 952 938 936 915 946 942 935 930 916 944 946 945 929 943 927 942 933 927 950 935 941 942 932 945 943 939 953 935 932 914 926 924 936
27 27 13 24 8 14 21 25 31 10 13 28 21 24 29 19 17 24 31 27 34 5476 5473 5463 5469 5482 5488 5481 5485 5477 5481 5488 5451 5480 5485 5474 5491 5470 5477 5504 5484 5483 5484 5471 5486 5479 5489 5465 5462 5473 5476 5476 5477 5461 5466 5483 5486 5471 5487 5466 5471 969 957 958 965 973 949 954 967 953 951 930 961 957 950 946 931 959 961 960 944 958 942 957 949 943 965 950 956 957 948 960 959 954 968 950 947 930 941 940 951
10 23 29 19 14 8 39 18 19 23 4 14 18 21 22 26 40 5 1 12 5502 5499 5489 5495 5508 5515 5507 5511 5503 5507 5514 5477 5506 5511 5500 5517 5496 5503 5530 5510 5509 5510 5497 5512 5505 5516 5491 5488 5499 5502 5502 5503 5487 5492 5509 5512 5497 5513 5492 5497 952 940 940 948 956 932 937 950 936 934 913 944 940 933 928 914 942 944 943 927 941 925 940 931 925 949 933 939 940 931 943 942 937 950 933 930 913 925 923 934
27 36 21 19 8 45 8 21 27 14 7 9 31 14 20 33 15 11 22 5498 5495 5485 5491 5504 5510 5503 5507 5499 5503 5509 5472 5502 5506 5495 5512 5492 5498 5526 5505 5505 5505 5492 5507 5500 5511 5486 5484 5494 5497 5497 5499 5483 5487 5504 5507 5492 5508 5487 5492 945 933 934 941 949 925 930 943 930 927 907 937 934 927 922 907 936 937 936 920 934 918 933 925 919 942 927 933 934 924 936 935 930 944 926 923 906 918 916 927
11 9 9 20 17 34 7 0 21 24 29 17 27 27 36 25 23 25 5486 5483 5473 5479 5492 5498 5491 5495 5487 5491 5497 5460 5490 5495 5483 5501 5480 5486 5514 5494 5493 5494 5480 5496 5489 5499 5475 5472 5483 5485 5486 5487 5471 5475 5493 5496 5481 5497 5476 5480 973 961 961 968 976 953 958 971 957 955 934 965 961 954 949 935 963 965 964 948 962 945 961 952 946 969 954 960 961 951 964 962 957 971 954 951 933 945 944 955
20 18 29 13 43 18 11 26 34 39 13 38 38 47 29 29 27 5490 5487 5477 5483 5496 5502 5495 5499 5491 5495 5502 5464 5494 5499 5487 5505 5484 5490 5518 5498 5497 5498 5485 5500 5493 5503 5479 5476 5487 5489 5490 5491 5475 5480 5497 5500 5485 5501 5480 5484 980 969 969 976 984 961 965 978 965 963 942 973 969 962 957 943 971 973 972 955 970 953 969 960 954 977 962 968 969 959 971 970 965 979 961 959 941 953 951 963
6 14 25 27 2 8 19 16 21 22 18 18 29 23 20 26 5484 5482 5471 5478 5491 5497 5490 5493 5485 5489 5496 5459 5489 5493 5482 5499 5479 5485 5513 5492 5492 5492 5479 5494 5487 5498 5473 5471 5481 5484 5484 5485 5469 5474 5491 5494 5479 5495 5474 5479 965 954 954 961 969 946 951 963 950 948 927 958 954 947 942 928 956 958 957 941 955 938 954 945 939 962 947 953 954 944 957 955 950 964 947 944 926 938 936 948
11 26 26 5 9 14 16 21 17 20 22 34 17 15 20 5490 5488 5477 5483 5496 5503 5496 5499 5491 5495 5502 5465 5495 5499 5488 5505 5484 5491 5519 5498 5497 5498 5485 5500 5493 5504 5479 5477 5487 5490 5490 5491 5475 5480 5497 5500 5485 5501 5480 5485 964 952 953 960 968 944 949 962 948 946 926 956 952 946 941 926 954 956 955 939 953 937 952 944 938 961 946 952 953 943 955 954 949 963 945 942 925 937 935 946
37 15 14 20 11 6 11 25 14 18 32 13 9 19 5494 5492 5481 5488 5501 5507 5500 5503 5495 5499 5506 5469 5499 5503 5492 5509 5489 5495 5523 5502 5502 5502 5489 5504 5497 5508 5483 5481 5491 5494 5494 5495 5479 5484 5501 5504 5489 5505 5484 5489 953 941 941 948 956 933 938 951 937 935 914 945 941 934 929 915 943 945 944 928 942 926 941 932 926 949 934 940 941 932 944 942 938 951 934 931 913 925 924 935
51 24 17 37 41 45 25 43 41 48 40 40 39 5479 5476 5466 5472 5485 5491 5484 5488 5480 5484 5490 5453 5483 5487 5476 5493 5473 5479 5507 5486 5486 5487 5473 5488 5481 5492 5467 5465 5475 5478 5478 5480 5464 5468 5485 5488 5473 5489 5468 5473 990 978 979 986 994 970 975 988 974 972 951 982 978 972 967 952 980 982 981 965 979 963 978 970 964 987 971 978 979 969 981 980 975 989 971 968 951 963 961 972
28 34 22 11 8 38 14 20 32 22 18 29 5497 5494 5484 5490 5503 5509 5502 5506 5498 5502 5508 5471 5501 5506 5494 5512 5491 5497 5525 5504 5504 5505 5491 5507 5500 5510 5486 5483 5493 5496 5496 5498 5482 5486 5503 5506 5492 5507 5486 5491 939 927 927 934 942 919 924 937 923 921 900 931 927 920 915 901 929 931 930 914 928 912 927 918 912 935 920 926 927 917 930 928 924 937 920 917 899 911 910 921
7 18 17 22 21 20 20 31 22 19 25 5486 5483 5473 5479 5492 5498 5491 5495 5487 5491 5497 5460 5490 5494 5483 5500 5480 5486 5514 5493 5493 5493 5480 5495 5488 5499 5474 5472 5482 5485 5485 5487 5471 5475 5492 5495 5480 5496 5475 5480 966 954 955 962 970 946 951 964 951 949 928 958 955 948 943 928 957 958 957 941 955 939 954 946 940 963 948 954 955 945 957 956 951 965 947 944 927 939 937 948
21 24 28 17 27 26 36 25 23 25 5486 5483 5473 5479 5492 5498 5491 5495 5487 5491 5497 5460 5490 5494 5483 5500 5480 5486 5514 5493 5493 5494 5480 5496 5488 5499 5474 5472 5482 5485 5485 5487 5471 5475 5492 5495 5480 5496 5475 5480 972 961 961 968 976 953 958 970 957 955 934 965 961 954 949 935 963 965 964 948 962 945 961 952 946 969 954 960 961 951 964 962 957 971 954 951 933 945 943 955
17 22 18 25 29 42 4 4 8 5503 5501 5490 5497 5510 5516 5509 5512 5504 5508 5515 5478 5508 5512 5501 5518 5498 5504 5532 5511 5511 5511 5498 5513 5506 5517 5492 5490 5500 5503 5503 5504 5488 5493 5510 5513 5498 5514 5493 5498 954 943 943 950 958 935 940 953 939 937 916 947 943 936 931 917 945 947 946 930 944 927 943 934 928 951 936 942 943 933 945 944 939 953 936 933 915 927 926 937
5 31 8 13 26 19 14 25 5491 5488 5478 5484 5497 5503 5496 5500 5492 5496 5502 5465 5495 5500 5488 5506 5485 5491 5519 5499 5498 5499 5485 5501 5494 5504 5480 5477 5487 5490 5490 5492 5476 5480 5497 5501 5486 5502 5481 5485 949 938 938 945 953 929 935 947 934 932 911 942 938 931 926 911 940 942 941 924 939 922 937 929 923 946 931 937 938 928 940 939 934 948 930 927 910 922 920 932
36 6 12 24 23 18 30 5489 5487 5477 5483 5496 5502 5495 5499 5491 5494 5501 5464 5494 5498 5487 5504 5484 5490 5518 5497 5497 5497 5484 5499 5492 5503 5478 5476 5486 5489 5489 5490 5475 5479 5496 5499 5484 5500 5479 5484 945 934 934 941 949 925 931 943 930 928 907 938 934 927 922 907 936 938 936 920 935 918 933 925 919 942 927 933 934 924 936 935 930 944 926 923 906 918 916 927
37 39 51 19 21 15 5502 5499 5489 5495 5508 5514 5507 5511 5503 5507 5513 5476 5506 5511 5499 5517 5496 5502 5530 5510 5509 5510 5496 5512 5505 5515 5491 5488 5499 5501 5501 5503 5487 5491 5508 5512 5497 5513 5492 5496 971 959 960 967 975 951 956 969 956 953 933 964 959 953 948 933 961 964 962 946 960 944 960 951 945 968 953 959 960 950 962 961 956 970 952 949 932 944 942 953
6 19 27 22 33 5483 5481 5470 5477 5490 5496 5489 5493 5484 5488 5495 5458 5488 5492 5481 5498 5478 5484 5512 5491 5491 5491 5478 5493 5486 5497 5472 5470 5480 5483 5483 5484 5468 5473 5490 5493 5478 5494 5473 5478 949 938 938 945 953 929 935 947 934 932 911 942 938 931 926 911 940 942 941 924 939 922 937 929 923 946 931 937 938 928 941 939 934 948 931 927 910 922 920 932
13 31 27 37 5478 5475 5465 5471 5484 5490 5483 5487 5479 5483 5489 5453 5482 5487 5475 5493 5472 5478 5506 5486 5485 5486 5473 5488 5481 5491 5467 5464 5475 5477 5478 5479 5463 5468 5485 5488 5473 5489 5468 5472 953 941 941 948 957 933 938 951 937 935 914 945 941 934 930 915 943 945 944 928 942 926 941 933 927 949 934 940 941 931 944 942 938 952 934 931 913 925 924 935
45 40 50 5465 5463 5452 5459 5471 5478 5471 5474 5466 5470 5477 5440 5469 5474 5463 5480 5459 5466 5494 5473 5472 5473 5460 5475 5468 5479 5454 5451 5462 5465 5465 5466 5450 5455 5472 5475 5460 5476 5455 5460 954 943 943 950 958 934 940 952 939 937 915 946 943 936 931 916 945 946 945 929 944 927 942 934 928 951 936 942 942 933 945 944 939 953 935 932 915 927 925 936
5 7 5507 5504 5494 5500 5513 5519 5512 5516 5508 5512 5518 5481 5511 5516 5504 5522 5501 5507 5535 5514 5514 5515 5501 5517 5510 5520 5496 5493 5503 5506 5506 5508 5492 5496 5513 5516 5502 5517 5496 5501 952 940 941 948 956 932 937 950 936 934 914 944 940 934 929 914 942 944 943 927 941 925 940 932 926 949 934 940 941 931 943 942 937 951 933 930 913 925 923 934
11 5503 5500 5490 5496 5509 5515 5508 5512 5504 5508 5514 5477 5507 5512 5500 5518 5497 5503 5531 5510 5510 5511 5497 5513 5505 5516 5492 5489 5499 5502 5502 5504 5488 5492 5509 5512 5497 5513 5492 5497 952 940 940 947 955 932 937 950 936 934 913 944 940 933 928 914 942 944 943 927 941 924 940 931 925 948 933 939 940 930 942 941 936 950 933 930 912 924 923 934
5510 5507 5497 5503 5516 5522 5515 5519 5511 5515 5522 5485 5514 5519 5508 5525 5504 5511 5538 5518 5517 5518 5505 5520 5513 5524 5499 5496 5507 5510 5510 5511 5495 5500 5517 5520 5505 5521 5500 5505 956 945 945 952 960 937 941 955 941 938 918 949 945 938 933 919 947 949 948 932 946 929 945 936 930 953 938 944 945 935 947 946 941 955 937 935 917 929 928 939
13 14 24 14 36 9 11 20 11 12 38 5 14 6 28 11 7 29 8 20 9 22 19 15 23 24 27 13 6 17 8 16 19 10 20 9 17 17 11 5950 5948 5946 5948 5959 5931 5954 5944 5940 5955 5920 5941 5956 5937 5946 5922 5952 5937 5945 5932 5946 5944 5933 5948 5940 5936 5933 5936 5935 5931 5951 5942 5946 5960 5943 5936 5921 5926 5927 5937
12 11 9 26 10 13 8 8 18 28 16 12 7 21 4 6 31 16 11 20 9 13 6 17 12 38 1 7 5 6 15 9 10 13 5 13 8 4 5949 5948 5945 5947 5958 5930 5953 5943 5939 5954 5919 5940 5955 5936 5945 5921 5951 5936 5944 5931 5945 5943 5932 5947 5939 5936 5932 5935 5934 5930 5950 5941 5945 5959 5943 5935 5920 5925 5926 5937
18 20 38 18 22 20 18 25 26 19 22 10 33 8 13 41 21 24 23 17 25 18 29 16 29 12 12 17 14 2 11 20 25 8 25 8 8 5937 5936 5934 5936 5947 5919 5942 5932 5928 5943 5908 5929 5944 5925 5934 5910 5940 5925 5933 5920 5934 5932 5921 5936 5928 5924 5921 5924 5923 5919 5939 5930 5934 5948 5931 5924 5909 5914 5915 5925
16 22 20 22 8 18 28 20 27 20 18 22 13 17 38 26 14 30 2 18 12 21 5 46 10 18 9 17 20 7 20 17 15 20 10 13 5946 5945 5943 5945 5955 5928 5951 5941 5936 5952 5917 5937 5952 5934 5943 5918 5948 5934 5941 5928 5943 5940 5930 5944 5936 5933 5930 5932 5931 5927 5947 5938 5943 5957 5940 5933 5917 5922 5924 5934
22 6 6 9 4 12 35 15 4 11 14 12 8 23 12 6 17 14 5 4 9 19 41 9 9 8 7 23 17 5 6 12 5 16 12 5958 5956 5954 5956 5967 5939 5962 5952 5948 5963 5928 5949 5964 5945 5954 5930 5960 5945 5953 5940 5954 5952 5941 5956 5948 5944 5941 5944 5943 5939 5959 5950 5954 5968 5951 5944 5929 5934 5935 5945
28 27 18 25 32 38 37 24 32 10 30 29 31 34 16 38 22 18 21 16 27 63 26 31 21 29 40 29 26 17 31 21 30 30 5967 5965 5963 5965 5976 5948 5971 5961 5957 5972 5937 5958 5973 5954 5963 5939 5969 5954 5962 5949 5963 5961 5950 5965 5957 5954 5950 5953 5952 5948 5968 5959 5963 5977 5960 5953 5938 5943 5944 5954
4 14 3 8 38 9 5 8 20 12 5 23 7 12 11 18 10 9 14 22 36 11 6 12 4 20 18 2 11 11 9 17 11 5956 5955 5952 5954 5965 5937 5961 5950 5946 5962 5926 5947 5962 5944 5952 5928 5958 5943 5951 5938 5953 5950 5940 5954 5946 5943 5939 5942 5941 5937 5957 5948 5952 5966 5950 5942 5927 5932 5933 5944
15 5 6 41 10 3 12 18 15 9 19 7 12 11 20 9 10 12 25 38 14 10 14 8 24 22 3 10 14 6 20 15 5959 5958 5956 5958 5969 5941 5964 5954 5950 5965 5930 5951 5966 5947 5956 5932 5962 5947 5955 5942 5956 5954 5943 5958 5950 5946 5943 5946 5944 5941 5961 5952 5956 5970 5953 5946 5931 5936 5937 5947
11 21 28 22 13 15 14 12 13 30 21 6 25 6 10 5 13 12 46 8 14 4 13 22 12 13 9 14 12 13 12 5953 5952 5950 5952 5962 5935 5958 5948 5944 5959 5924 5945 5959 5941 5950 5926 5956 5941 5949 5935 5950 5948 5937 5952 5944 5940 5937 5940 5938 5935 5955 5945 5950 5964 5947 5940 5925 5930 5931 5941
10 36 12 4 9 17 11 5 23 9 9 14 16 8 6 12 20 38 9 6 9 4 21 17 2 9 10 7 16 10 5956 5955 5952 5954 5965 5937 5961 5950 5946 5962 5926 5947 5962 5944 5952 5928 5958 5943 5951 5938 5953 5950 5940 5954 5946 5943 5939 5942 5941 5937 5957 5948 5952 5967 5950 5942 5927 5932 5933 5944
46 8 9 15 23 19 12 18 4 17 7 26 15 16 17 30 35 19 13 19 12 27 26 8 16 18 12 25 19 5961 5960 5958 5960 5970 5943 5966 5956 5951 5967 5932 5952 5967 5949 5958 5933 5963 5949 5957 5943 5958 5955 5945 5960 5951 5948 5945 5947 5946 5942 5962 5953 5958 5972 5955 5948 5932 5937 5939 5949
43 39 33 41 27 34 58 43 34 46 21 37 31 40 16 53 27 33 28 34 26 19 38 37 29 39 21 27 5928 5927 5925 5927 5938 5910 5933 5923 5919 5934 5899 5920 5934 5916 5925 5901 5931 5916 5924 5910 5925 5923 5912 5927 5919 5915 5912 5915 5913 5910 5930 5921 5925 5939 5922 5915 5900 5905 5906 5916
13 10 28 16 10 26 4 21 4 25 19 17 22 28 28 17 9 19 10 20 24 10 20 14 17 21 15 5953 5952 5950 5952 5962 5935 5958 5948 5944 5959 5924 5945 5959 5941 5950 5926 5956 5941 5949 5935 5950 5948 5937 5952 5944 5940 5937 5940 5938 5935 5955 5945 5950 5964 5947 5940 5925 5930 5931 5941
12 15 15 9 20 10 8 14 18 6 8 9 23 41 12 10 11 8 25 20 3 7 14 3 19 14 5960 5959 5956 5958 5969 5941 5965 5954 5950 5966 5930 5951 5966 5948 5956 5932 5962 5947 5955 5942 5957 5954 5944 5958 5950 5947 5943 5946 5945 5941 5961 5952 5956 5971 5954 5946 5931 5936 5937 5948
25 6 3 31 11 16 14 16 16 11 20 18 31 8 2 12 4 12 14 10 17 4 15 11 5 5948 5947 5944 5947 5957 5929 5953 5942 5938 5954 5919 5939 5954 5936 5944 5920 5950 5935 5943 5930 5945 5942 5932 5946 5938 5935 5931 5934 5933 5929 5949 5940 5944 5959 5942 5934 5919 5924 5925 5936
25 22 21 24 9 29 20 9 15 6 26 55 21 23 17 21 36 26 18 8 26 11 27 25 5968 5967 5964 5966 5977 5949 5972 5962 5958 5973 5938 5959 5974 5955 5964 5940 5970 5955 5963 5950 5964 5962 5952 5966 5958 5955 5951 5954 5953 5949 5969 5960 5964 5978 5962 5954 5939 5944 5945 5956
7 34 16 16 19 11 17 10 21 13 34 4 7 9 7 11 8 13 17 2 17 6 0 5945 5944 5942 5944 5954 5927 5950 5940 5935 5951 5916 5936 5951 5933 5942 5917 5947 5933 5941 5927 5942 5939 5929 5944 5935 5932 5929 5931 5930 5926 5946 5937 5942 5956 5939 5932 5916 5921 5923 5933
28 10 13 13 15 13 8 17 18 33 7 1 10 1 16 14 6 14 6 12 12 7 5951 5950 5947 5950 5960 5932 5956 5946 5941 5957 5922 5942 5957 5939 5947 5923 5953 5939 5946 5933 5948 5945 5935 5949 5941 5938 5934 5937 5936 5932 5952 5943 5948 5962 5945 5938 5922 5927 5928 5939
22 24 23 36 20 27 18 42 52 32 29 30 27 43 40 22 21 34 18 39 34 5979 5978 5975 5977 5988 5960 5983 5973 5969 5984 5949 5970 5985 5966 5975 5951 5981 5966 5974 5961 5975 5973 5962 5977 5969 5966 5962 5965 5964 5960 5980 5971 5975 5989 5973 5965 5950 5955 5956 5967
18 4 25 16 15 18 28 32 17 10 18 10 23 24 8 17 15 13 22 16 5957 5956 5954 5956 5966 5939 5962 5952 5948 5963 5928 5949 5963 5945 5954 5930 5960 5945 5953 5939 5954 5952 5941 5956 5947 5944 5941 5944 5942 5939 5958 5949 5954 5968 5951 5944 5929 5934 5935 5945
22 13 4 6 6 18 47 12 14 8 13 26 18 10 3 16 6 18 15 5959 5958 5956 5958 5968 5941 5964 5954 5950 5965 5930 5951 5965 5947 5956 5931 5961 5947 5955 5941 5956 5953 5943 5958 5949 5946 5943 5945 5944 5941 5960 5951 5956 5970 5953 5946 5930 5935 5937 5947
28 20 19 23 32 29 20 13 22 13 24 27 12 21 18 17 25 19 5957 5956 5953 5955 5966 5938 5962 5951 5947 5963 5927 5948 5963 5945 5953 5929 5959 5944 5952 5939 5954 5951 5941 5955 5947 5944 5940 5943 5942 5938 5958 5949 5953 5968 5951 5943 5928 5933 5934 5945
16 10 19 6 45 9 16 7 15 20 7 18 16 13 18 9 12 5947 5946 5944 5946 5956 5929 5952 5942 5938 5953 5918 5939 5953 5935 5944 5919 5949 5935 5943 5929 5944 5941 5931 5946 5937 5934 5931 5934 5932 5929 5948 5939 5944 5958 5941 5934 5918 5924 5925 5935
7 4 22 46 14 14 10 12 28 20 9 1 17 3 20 17 5962 5960 5958 5960 5971 5943 5966 5956 5952 5967 5932 5953 5968 5949 5958 5934 5964 5949 5957 5944 5958 5956 5945 5960 5952 5949 5945 5948 5947 5943 5963 5954 5958 5972 5956 5948 5933 5938 5939 5949
11 15 42 6 9 4 8 21 13 8 7 11 8 13 10 5954 5953 5951 5953 5964 5936 5959 5949 5945 5960 5925 5946 5960 5942 5951 5927 5957 5942 5950 5937 5951 5949 5938 5953 5945 5941 5938 5941 5939 5936 5956 5947 5951 5965 5948 5941 5926 5931 5932 5942
25 50 17 18 14 16 32 24 12 4 21 6 24 21 5965 5964 5962 5964 5974 5947 5970 5960 5956 5971 5936 5957 5971 5953 5962 5938 5968 5953 5961 5947 5962 5960 5949 5964 5956 5952 5949 5952 5950 5947 5967 5957 5962 5976 5959 5952 5937 5942 5943 5953
45 12 19 12 18 17 5 22 21 15 23 8 13 5942 5940 5938 5940 5951 5923 5946 5936 5932 5947 5912 5933 5948 5929 5938 5914 5944 5929 5937 5924 5938 5936 5925 5940 5932 5929 5925 5928 5927 5923 5943 5934 5938 5952 5935 5928 5913 5918 5919 5929
38 32 42 34 28 40 37 47 32 44 37 34 5932 5931 5929 5931 5942 5914 5937 5927 5923 5938 5903 5924 5939 5920 5929 5905 5935 5920 5928 5915 5929 5927 5916 5931 5923 5919 5916 5919 5917 5914 5934 5925 5929 5943 5926 5919 5904 5909 5910 5920
7 5 7 15 8 11 14 5 14 7 4 5948 5947 5945 5947 5957 5930 5953 5943 5938 5954 5919 5939 5954 5936 5945 5920 5950 5936 5944 5930 5945 5942 5932 5947 5938 5935 5932 5934 5933 5929 5949 5940 5945 5959 5942 5935 5919 5924 5926 5936
11 2 15 14 7 15 5 13 12 6 5950 5949 5946 5949 5959 5931 5955 5944 5940 5956 5921 5941 5956 5938 5946 5922 5952 5938 5945 5932 5947 5944 5934 5948 5940 5937 5933 5936 5935 5931 5951 5942 5947 5961 5944 5937 5921 5926 5927 5938
9 19 10 11 10 10 12 10 9 5952 5950 5948 5950 5961 5933 5956 5946 5942 5957 5922 5943 5958 5939 5948 5924 5954 5939 5947 5934 5948 5946 5935 5950 5942 5939 5935 5938 5937 5933 5953 5944 5948 5962 5945 5938 5923 5928 5929 5939
16 14 6 13 6 11 13 7 5952 5950 5948 5950 5961 5933 5956 5946 5942 5957 5922 5943 5958 5939 5948 5924 5954 5939 5947 5934 5948 5946 5935 5950 5942 5938 5935 5938 5937 5933 5953 5944 5948 5962 5945 5938 5923 5928 5929 5939
13 22 28 10 27 10 11 5935 5934 5932 5934 5944 5917 5940 5930 5926 5941 5906 5927 5941 5923 5932 5908 5938 5923 5931 5917 5932 5930 5919 5934 5925 5922 5919 5922 5920 5917 5936 5927 5932 5946 5929 5922 5907 5912 5913 5923
19 20 10 21 3 8 5942 5940 5938 5940 5951 5923 5946 5936 5932 5947 5912 5933 5948 5929 5938 5914 5944 5929 5937 5924 5938 5936 5925 5940 5932 5929 5925 5928 5927 5923 5943 5934 5938 5952 5936 5928 5913 5918 5919 5929
10 12 7 18 12 5957 5956 5954 5956 5966 5939 5962 5952 5948 5963 5928 5949 5963 5945 5954 5929 5959 5945 5953 5939 5954 5951 5941 5956 5947 5944 5941 5943 5942 5939 5958 5949 5954 5968 5951 5944 5928 5933 5935 5945
18 4 20 17 5962 5961 5958 5960 5971 5943 5966 5956 5952 5967 5932 5953 5968 5949 5958 5934 5964 5949 5957 5944 5958 5956 5945 5960 5952 5949 5945 5948 5947 5943 5963 5954 5958 5972 5956 5948 5933 5938 5939 5950
17 8 2 5945 5944 5942 5944 5955 5927 5950 5940 5936 5951 5916 5937 5952 5933 5942 5918 5948 5933 5941 5928 5942 5940 5929 5944 5936 5932 5929 5932 5931 5927 5947 5938 5942 5956 5939 5932 5917 5922 5923 5933
21 17 5962 5961 5959 5961 5971 5944 5967 5957 5952 5968 5933 5953 5968 5950 5959 5934 5964 5950 5957 5944 5959 5956 5946 5960 5952 5949 5946 5948 5947 5943 5963 5954 5959 5973 5956 5949 5933 5938 5940 5950
6 5941 5940 5938 5940 5950 5923 5946 5936 5932 5947 5912 5933 5947 5929 5938 5914 5944 5929 5937 5923 5938 5936 5925 5940 5931 5928 5925 5928 5926 5923 5942 5933 5938 5952 5935 5928 5913 5918 5919 5929
5945 5944 5942 5944 5955 5927 5950 5940 5936 5951 5916 5937 5951 5933 5942 5918 5948 5933 5941 5928 5942 5940 5929 5944 5936 5932 5929 5932 5930 5927 5947 5938 5942 5956 5939 5932 5917 5922 5923 5933
13 12 4 9 22 21 5 16 25 40 9 19 19 26 39 13 12 9 26 11 29 17 23 27 14 20 15 15 23 11 11 16 14 20 22 40 29 30 18
3 9 16 17 10 15 9 13 31 12 8 11 12 30 3 16 7 18 3 16 18 10 15 21 16 15 17 18 3 9 3 13 7 13 31 23 22 11
7 16 15 13 12 6 16 30 9 12 9 14 29 6 13 4 16 1 17 15 12 15 18 13 12 14 15 5 6 5 14 8 12 30 21 21 9
11 19 18 7 12 22 36 7 15 15 21 35 9 11 5 22 7 25 15 19 22 15 17 13 14 20 8 7 12 13 15 18 36 26 26 14
30 20 15 22 24 46 18 17 25 27 45 13 21 15 32 15 31 25 24 30 23 27 23 24 30 13 18 19 7 23 28 46 36 37 24
25 18 9 28 19 13 25 7 20 18 21 12 15 6 15 21 8 20 16 17 2 8 9 1 20 12 16 30 14 8 19 7 9 7
24 17 4 35 22 3 18 9 33 8 26 16 23 13 13 27 7 15 31 23 24 26 25 10 19 10 14 11 18 34 29 27 19
14 28 37 6 22 16 27 36 16 7 9 23 12 30 12 25 26 8 17 11 11 19 14 8 17 19 20 20 37 26 27 16
20 24 9 17 3 14 23 12 11 7 10 7 17 11 14 13 17 7 8 10 9 11 6 7 21 7 6 25 15 15 3
35 26 7 21 9 34 12 30 20 25 17 12 30 8 16 35 26 27 29 27 14 22 13 17 13 21 35 30 29 21
31 37 21 26 2 35 31 31 14 31 24 27 28 20 35 20 26 27 17 34 29 28 44 25 19 1 11 10 22
20 11 22 30 14 4 6 17 9 25 8 21 21 9 11 6 6 14 13 4 13 20 15 15 32 20 22 10
19 12 35 6 25 15 24 12 16 26 9 17 29 23 23 25 25 8 18 10 11 12 19 36 30 29 19
14 20 14 13 10 7 10 16 11 14 11 18 5 8 10 7 14 8 9 24 8 4 22 12 12 1
24 14 26 18 16 15 4 25 3 6 31 19 22 24 20 15 19 10 22 7 13 25 22 20 15
33 30 30 13 30 22 26 26 18 35 19 26 26 17 33 28 27 43 23 17 1 11 9 21
19 9 21 6 18 21 11 17 23 19 17 19 21 2 12 6 10 10 16 35 26 26 14
10 18 13 28 5 24 24 6 11 5 4 13 17 7 17 24 18 16 31 20 21 12
17 3 21 12 16 18 15 13 9 11 15 7 3 8 15 11 13 32 21 22 10
17 16 15 17 11 23 7 13 14 5 20 15 15 30 12 5 15 6 5 8
18 15 13 16 18 13 12 14 16 4 6 5 14 8 12 31 22 21 9
27 7 5 34 20 24 26 20 18 22 13 26 10 13 23 21 19 16
24 22 9 8 3 1 10 19 9 18 27 18 14 27 15 18 10
8 30 19 21 23 20 12 17 8 19 6 13 28 23 21 14
30 15 19 22 15 17 18 11 26 7 8 19 16 13 12
16 10 9 18 21 13 23 27 24 22 36 24 26 18
6 8 3 18 10 14 27 13 7 21 9 11 5
2 9 16 6 14 25 15 12 27 15 17 8
10 18 8 17 26 17 14 28 16 18 10
20 12 16 30 14 7 18 6 8 7
10 6 10 10 16 34 26 25 13
10 19 12 12 30 19 20 8
16 4 10 28 20 20 9
20 26 44 36 35 23
7 25 18 16 8
19 10 9 4
12 10 22
3 12
12

EOF
