c phase_transition random 3-CNF r=4.27 (seed 11687)
p cnf 200 854
145 -20 -114 0
33 -84 -67 0
124 134 96 0
79 26 -102 0
-47 -65 -38 0
64 -10 -65 0
197 -76 -57 0
54 139 -157 0
95 -93 -151 0
26 111 -170 0
7 -182 -53 0
56 37 135 0
4 175 -138 0
116 111 -193 0
123 42 -57 0
12 -101 -48 0
96 -55 -190 0
173 -194 -98 0
137 79 -51 0
20 -76 -49 0
19 -7 -93 0
160 69 -66 0
45 -106 -10 0
188 -49 -26 0
3 -67 -45 0
50 69 -38 0
34 181 158 0
199 113 -136 0
48 101 98 0
28 -126 -67 0
175 -69 -186 0
179 70 -52 0
-123 -50 -154 0
172 -83 -6 0
-28 -1 -88 0
43 1 -7 0
146 124 -76 0
158 85 13 0
138 54 -141 0
120 132 86 0
188 -164 -189 0
-28 -33 -20 0
113 -115 -76 0
58 -170 -95 0
21 102 8 0
137 37 -197 0
188 70 -103 0
40 -172 -32 0
-65 -160 -92 0
155 13 -93 0
113 87 157 0
11 123 -50 0
136 -12 -57 0
156 -85 -191 0
124 -51 -59 0
128 -151 -180 0
143 85 193 0
87 141 -134 0
43 133 -122 0
-116 -126 -13 0
36 -42 -51 0
110 -55 -4 0
160 89 -143 0
-12 -65 -196 0
116 -73 -138 0
-60 -152 -7 0
143 -174 -178 0
84 167 -2 0
181 34 115 0
42 -29 -64 0
113 32 -25 0
18 169 -40 0
33 -37 -29 0
10 -182 -8 0
174 164 -86 0
182 -105 -14 0
14 143 73 0
174 -122 -110 0
127 8 -113 0
117 46 51 0
19 38 83 0
53 -199 -183 0
116 128 96 0
61 -20 -84 0
142 196 -53 0
132 -188 -14 0
63 -184 -144 0
91 156 -165 0
-103 -125 -193 0
76 18 -135 0
-100 -178 -48 0
166 25 105 0
105 -46 -173 0
3 135 -147 0
-120 -109 -72 0
-131 -38 -127 0
62 39 -8 0
124 89 61 0
120 105 -200 0
55 -31 -30 0
-80 -198 -144 0
5 -136 -197 0
22 -8 -139 0
66 72 22 0
94 193 -174 0
-71 -42 -59 0
109 -67 -32 0
156 -24 -186 0
190 44 -176 0
158 -93 -69 0
131 77 -41 0
-143 -96 -103 0
-148 -79 -30 0
196 99 25 0
73 -39 -115 0
133 8 -140 0
34 103 -62 0
24 33 -185 0
31 -125 -34 0
165 -146 -160 0
154 41 -50 0
134 -53 -178 0
180 -17 -191 0
14 95 64 0
9 78 -163 0
156 -182 -87 0
83 22 -182 0
138 160 -101 0
101 -175 -109 0
66 -63 -195 0
6 -36 -95 0
-114 -76 -197 0
20 112 -8 0
113 158 21 0
-1 -10 -199 0
197 -170 -173 0
45 159 -36 0
56 42 -135 0
126 -6 -83 0
124 28 162 0
32 104 -135 0
42 -185 -87 0
67 66 -148 0
110 128 -70 0
156 154 -25 0
181 46 137 0
114 10 -120 0
-65 -46 -12 0
11 1 -189 0
143 161 -123 0
127 -40 -97 0
148 -23 -43 0
-190 -18 -35 0
7 -67 -27 0
15 145 -120 0
17 100 -143 0
111 -182 -121 0
185 -83 -115 0
37 36 73 0
122 127 -200 0
177 -19 -91 0
10 -20 -189 0
111 -84 -83 0
153 -99 -48 0
144 78 -76 0
17 -91 -188 0
111 117 -64 0
175 -20 -27 0
64 -116 -32 0
13 -86 -52 0
-190 -169 -35 0
98 152 30 0
153 -139 -75 0
188 -141 -101 0
95 29 -75 0
113 130 174 0
132 -65 -172 0
198 -45 -183 0
159 119 164 0
184 76 -43 0
166 44 -197 0
187 -29 -57 0
193 -77 -112 0
142 -33 -41 0
39 61 -45 0
-26 -105 -87 0
72 -12 -130 0
-64 -15 -107 0
-156 -15 -174 0
94 175 85 0
192 -164 -72 0
113 -14 -41 0
168 56 -119 0
175 -155 -169 0
5 -87 -48 0
104 -111 -55 0
139 -67 -70 0
65 141 102 0
35 -125 -84 0
166 -73 -77 0
191 99 130 0
41 56 121 0
28 -59 -161 0
156 -31 -70 0
185 138 -73 0
23 127 -168 0
-114 -79 -97 0
-141 -142 -24 0
113 -84 -9 0
151 150 101 0
162 -143 -137 0
103 -147 -118 0
30 -77 -60 0
-125 -150 -60 0
153 111 -43 0
63 -62 -115 0
95 25 -197 0
80 81 -97 0
124 -104 -166 0
-77 -160 -74 0
54 168 -116 0
64 -8 -160 0
44 -194 -71 0
-160 -48 -98 0
154 -198 -141 0
31 12 -74 0
181 -31 -64 0
50 -131 -181 0
9 -46 -183 0
174 155 -47 0
198 132 -168 0
186 36 -56 0
125 152 -83 0
-13 -131 -136 0
137 109 -9 0
-96 -64 -114 0
-169 -107 -46 0
171 10 -37 0
136 -89 -117 0
69 -135 -120 0
196 -78 -46 0
-102 -81 -167 0
164 165 -189 0
151 -184 -165 0
138 198 178 0
57 -32 -160 0
195 -174 -173 0
109 -161 -127 0
31 -72 -165 0
59 -171 -181 0
123 23 -40 0
26 -80 -199 0
184 -78 -180 0
117 -44 -59 0
55 -148 -25 0
-54 -174 -100 0
145 -135 -133 0
-34 -50 -77 0
159 51 -150 0
84 109 -186 0
64 -187 -55 0
178 47 -146 0
178 -93 -51 0
146 133 -112 0
144 -162 -145 0
-147 -74 -30 0
8 50 177 0
104 -33 -89 0
180 36 118 0
-195 -171 -168 0
132 119 -21 0
62 32 -138 0
152 -80 -200 0
70 177 -100 0
98 -19 -61 0
185 153 -22 0
35 195 -47 0
26 144 127 0
178 -194 -116 0
39 -161 -173 0
195 82 -117 0
85 -19 -141 0
49 136 135 0
131 55 -83 0
182 145 -70 0
112 -172 -181 0
83 95 182 0
128 87 -55 0
192 -130 -19 0
25 154 -68 0
179 188 -74 0
33 -193 -84 0
69 -87 -158 0
176 -139 -64 0
77 172 9 0
23 117 16 0
56 114 -46 0
12 -20 -170 0
195 18 -104 0
-129 -19 -52 0
193 83 88 0
152 174 10 0
13 30 -172 0
37 69 -200 0
183 90 73 0
99 -10 -189 0
3 -28 -133 0
45 -140 -53 0
90 1 -33 0
30 32 -169 0
137 19 144 0
96 -167 -113 0
160 96 156 0
38 167 -92 0
139 16 -112 0
75 169 -10 0
163 -115 -186 0
61 129 -36 0
183 -61 -69 0
134 120 -17 0
105 124 28 0
18 -21 -15 0
48 -195 -160 0
6 -104 -185 0
31 13 -134 0
63 50 -3 0
16 18 -107 0
179 -149 -150 0
121 87 -105 0
56 -75 -10 0
-126 -114 -125 0
-97 -113 -177 0
23 19 -72 0
123 1 -53 0
9 -16 -188 0
-179 -169 -39 0
1 -106 -115 0
165 46 21 0
82 14 141 0
83 21 -1 0
7 137 -198 0
75 123 -67 0
97 -83 -198 0
167 -14 -114 0
142 -122 -6 0
90 6 110 0
118 -35 -83 0
62 -153 -180 0
-195 -95 -41 0
107 192 -40 0
-71 -93 -53 0
128 -1 -184 0
153 171 -26 0
118 -85 -117 0
126 150 -137 0
-170 -136 -57 0
56 -50 -179 0
93 106 -77 0
68 200 -89 0
-49 -37 -186 0
128 7 -84 0
72 81 -132 0
-105 -69 -197 0
25 -105 -170 0
113 -107 -56 0
32 -94 -70 0
31 64 -84 0
189 169 -39 0
22 -103 -112 0
143 -166 -114 0
200 -184 -132 0
-145 -45 -123 0
30 -132 -54 0
-31 -149 -42 0
55 101 -64 0
145 -158 -4 0
15 -190 -87 0
-154 -127 -56 0
25 197 36 0
127 -5 -184 0
-145 -5 -19 0
69 149 -55 0
193 -9 -102 0
64 194 -116 0
-26 -100 -64 0
82 -118 -165 0
57 46 -43 0
33 145 -164 0
73 25 -186 0
87 119 156 0
163 -143 -157 0
86 -164 -181 0
44 -111 -93 0
140 43 -72 0
62 174 -146 0
-148 -186 -164 0
102 109 -171 0
58 -144 -57 0
-118 -155 -100 0
84 -75 -106 0
63 87 -184 0
-145 -105 -14 0
89 -41 -196 0
48 -110 -42 0
185 199 -138 0
9 -125 -91 0
194 124 -190 0
99 27 118 0
153 95 185 0
101 86 160 0
191 61 25 0
177 161 -146 0
124 133 149 0
51 169 -60 0
182 6 -18 0
21 134 61 0
121 125 -177 0
97 170 -70 0
19 111 119 0
91 156 -176 0
73 -148 -145 0
-44 -22 -156 0
-28 -154 -92 0
159 -10 -200 0
123 12 -51 0
123 -77 -115 0
109 131 -170 0
171 42 75 0
181 85 139 0
43 126 194 0
140 166 -76 0
194 91 100 0
1 13 46 0
-93 -184 -188 0
189 196 -87 0
194 22 -159 0
51 53 -114 0
12 -179 -87 0
100 -128 -39 0
96 191 -131 0
126 188 91 0
19 179 -113 0
81 -82 -184 0
82 126 -60 0
-181 -99 -18 0
194 136 183 0
176 160 -73 0
-78 -1 -25 0
67 -70 -140 0
48 35 17 0
191 -118 -6 0
-180 -175 -80 0
28 22 88 0
88 190 -61 0
67 183 -133 0
22 1 96 0
-158 -165 -107 0
161 138 -45 0
6 199 -158 0
199 12 -149 0
115 -147 -77 0
-126 -19 -166 0
113 50 162 0
96 -39 -118 0
94 178 -90 0
12 -108 -97 0
196 102 -174 0
10 98 -49 0
34 164 -106 0
-53 -69 -40 0
144 67 -155 0
-52 -143 -90 0
12 -92 -74 0
112 171 2 0
186 -73 -78 0
89 158 -40 0
-5 -175 -49 0
128 195 -31 0
84 -142 -191 0
88 152 11 0
87 -79 -101 0
16 -29 -93 0
53 -61 -163 0
-142 -105 -61 0
68 133 -20 0
-67 -166 -92 0
171 -12 -170 0
128 -142 -115 0
58 -73 -45 0
181 -115 -106 0
179 167 110 0
167 -6 -170 0
8 40 -189 0
125 102 -112 0
106 112 47 0
-26 -111 -31 0
133 52 -159 0
102 -95 -125 0
-38 -73 -57 0
180 -197 -58 0
88 -158 -76 0
-60 -92 -127 0
92 126 -61 0
189 63 -170 0
49 199 -90 0
194 170 -179 0
52 134 -189 0
15 52 67 0
71 -181 -40 0
134 153 15 0
72 141 -48 0
40 -70 -79 0
98 -165 -97 0
15 129 -72 0
109 48 -49 0
192 35 -97 0
-2 -62 -195 0
63 -76 -126 0
181 159 -127 0
186 -111 -116 0
172 136 144 0
129 -74 -17 0
140 94 -78 0
-163 -111 -51 0
148 84 -163 0
80 -147 -153 0
139 155 176 0
147 -159 -7 0
56 -104 -186 0
99 49 -180 0
91 146 3 0
-20 -196 -84 0
189 -106 -11 0
10 -71 -151 0
123 115 -165 0
126 71 -124 0
-32 -39 -133 0
137 160 -9 0
96 -53 -70 0
155 44 85 0
176 95 89 0
7 107 72 0
-153 -26 -64 0
25 116 -158 0
69 -44 -62 0
190 -3 -31 0
110 -62 -156 0
19 77 -59 0
197 181 -29 0
5 43 -198 0
132 148 -173 0
100 -159 -113 0
22 -57 -95 0
179 171 133 0
160 -134 -120 0
132 62 -163 0
187 87 -198 0
77 80 36 0
81 -103 -119 0
37 -22 -129 0
147 186 -2 0
159 -76 -31 0
79 196 194 0
35 139 -164 0
163 -128 -139 0
143 25 -93 0
48 197 -157 0
155 -143 -130 0
-163 -39 -37 0
12 -179 -147 0
135 118 71 0
96 47 -28 0
175 199 55 0
85 35 -191 0
22 -195 -88 0
98 25 -42 0
132 26 -22 0
95 -149 -56 0
170 -25 -155 0
37 44 174 0
141 180 132 0
138 3 -199 0
121 -185 -67 0
102 10 -62 0
62 -15 -80 0
64 -157 -141 0
69 46 58 0
64 88 -179 0
175 -82 -76 0
4 136 -32 0
47 189 -16 0
53 172 -133 0
162 191 -16 0
78 -5 -196 0
-111 -23 -73 0
159 21 -175 0
29 111 78 0
137 -157 -79 0
-52 -182 -157 0
-16 -104 -161 0
169 16 -23 0
16 -97 -116 0
198 -59 -93 0
11 4 -103 0
157 50 -126 0
79 86 -12 0
57 186 -34 0
72 36 -30 0
65 -161 -51 0
94 82 -111 0
28 -6 -143 0
61 159 -198 0
119 17 -58 0
150 63 -131 0
145 -22 -94 0
137 -120 -63 0
31 -148 -157 0
104 112 -39 0
-67 -9 -112 0
83 -27 -110 0
49 94 121 0
25 -99 -145 0
62 129 -121 0
37 -65 -149 0
51 189 -171 0
165 -2 -176 0
69 101 -167 0
23 168 -190 0
21 -168 -125 0
96 19 -6 0
102 157 -12 0
191 -21 -130 0
-38 -17 -151 0
108 184 -101 0
178 8 198 0
104 -54 -109 0
186 112 -190 0
2 181 -75 0
35 5 65 0
102 -79 -94 0
40 180 -45 0
29 -192 -71 0
82 -193 -161 0
125 -103 -91 0
80 144 26 0
24 -103 -198 0
101 -102 -120 0
-93 -113 -178 0
194 171 -166 0
46 38 138 0
68 -86 -46 0
122 103 142 0
170 20 -23 0
-153 -200 -176 0
94 175 84 0
77 -2 -69 0
44 86 78 0
104 108 -200 0
88 100 -21 0
11 87 -168 0
67 72 -50 0
92 -192 -77 0
24 -171 -158 0
137 172 -65 0
-144 -172 -152 0
7 -56 -133 0
173 -58 -174 0
88 -148 -197 0
105 -176 -7 0
40 -120 -19 0
187 157 -3 0
31 -195 -28 0
98 32 -50 0
-33 -190 -81 0
69 -123 -116 0
110 -107 -29 0
51 -101 -192 0
154 -88 -168 0
23 134 165 0
126 149 199 0
-176 -46 -58 0
139 -74 -182 0
186 -167 -182 0
-97 -25 -169 0
132 109 -131 0
21 -48 -145 0
12 144 30 0
49 -153 -161 0
112 -9 -113 0
126 75 98 0
77 163 -116 0
-106 -197 -107 0
43 -171 -150 0
90 -97 -145 0
123 -157 -182 0
111 -115 -80 0
25 -140 -54 0
35 -14 -119 0
20 119 -56 0
142 136 -8 0
60 68 -15 0
90 77 -117 0
47 19 -26 0
152 -194 -198 0
78 -58 -105 0
117 -183 -138 0
126 123 -133 0
-120 -98 -138 0
-106 -81 -147 0
27 101 151 0
47 -184 -125 0
80 -61 -85 0
153 -189 -37 0
117 144 -36 0
86 -195 -33 0
50 -120 -2 0
22 29 35 0
176 -171 -147 0
67 17 -105 0
161 183 -188 0
52 90 -96 0
48 -177 -23 0
159 108 37 0
115 193 -63 0
52 54 -7 0
11 100 -89 0
173 -15 -148 0
128 -179 -8 0
-133 -115 -164 0
67 76 -135 0
-97 -189 -84 0
71 138 -100 0
141 -153 -21 0
113 162 -116 0
70 69 33 0
152 -35 -118 0
85 -16 -48 0
91 160 -59 0
86 90 -73 0
8 154 -167 0
116 -80 -102 0
41 -5 -128 0
45 -131 -150 0
53 16 -72 0
130 70 -156 0
104 -39 -144 0
154 115 -68 0
90 125 -140 0
62 73 -116 0
132 54 -43 0
125 -78 -148 0
32 -196 -26 0
167 -145 -182 0
181 54 -77 0
124 153 -103 0
152 10 -140 0
143 57 91 0
106 -21 -150 0
102 -121 -53 0
150 152 -84 0
45 153 89 0
157 -149 -132 0
143 200 -42 0
80 42 -22 0
120 95 -52 0
76 78 9 0
-198 -137 -61 0
180 -127 -177 0
113 108 -197 0
74 -194 -134 0
153 129 -11 0
32 38 -84 0
200 127 -162 0
19 17 -24 0
160 17 -68 0
-191 -81 -118 0
96 -70 -137 0
69 -20 -187 0
181 59 -168 0
79 -132 -128 0
57 -104 -88 0
101 -79 -119 0
108 -156 -78 0
168 185 -138 0
68 59 -103 0
142 34 119 0
122 -53 -96 0
85 84 172 0
63 -13 -179 0
149 -13 -30 0
24 123 49 0
183 188 112 0
154 -166 -194 0
34 -99 -142 0
-20 -44 -93 0
171 -10 -167 0
144 95 1 0
21 71 -107 0
82 81 -188 0
-174 -17 -37 0
30 26 129 0
193 -34 -24 0
24 -159 -119 0
3 104 -125 0
38 114 -130 0
153 193 -38 0
190 80 -74 0
33 -76 -99 0
121 155 -142 0
119 -12 -197 0
-156 -140 -10 0
83 -61 -118 0
39 17 -122 0
24 128 -88 0
176 10 -7 0
143 -130 -41 0
11 111 -141 0
171 -103 -105 0
60 40 -195 0
115 32 -200 0
3 137 -37 0
184 -12 -64 0
62 -71 -49 0
11 60 -29 0
-18 -107 -4 0
170 132 -134 0
59 -74 -93 0
149 -11 -87 0
37 -109 -139 0
180 117 -48 0
10 27 140 0
137 -55 -110 0
188 23 104 0
110 119 -139 0
6 26 -169 0
-97 -61 -125 0
47 57 -178 0
173 3 -193 0
125 48 161 0
82 11 43 0
-146 -16 -174 0
148 23 -20 0
152 109 -65 0
178 -44 -106 0
61 128 -106 0
196 -155 -141 0
68 -159 -5 0
133 -134 -156 0
143 -98 -51 0
155 86 -36 0
40 178 -119 0
98 136 11 0
48 -127 -7 0
66 88 -119 0
