c rs_mpfx (gt1 RandomSearch argmax, budget 15000)
p cnf 200 847
164 42 -79 0
113 -170 -6 0
118 -56 -20 0
74 109 -115 0
103 -14 -79 0
-35 -137 -165 0
140 92 -80 0
127 94 -15 0
96 -113 -84 0
30 90 -37 0
30 -44 -133 0
90 -72 -143 0
198 -40 -61 0
199 -153 -170 0
51 -45 -109 0
28 -67 -33 0
162 91 -107 0
101 -90 -87 0
33 -2 -178 0
9 -111 -92 0
16 122 -85 0
112 -49 -71 0
33 162 -83 0
111 16 -87 0
196 82 131 0
184 -193 -195 0
62 116 -180 0
100 -25 -177 0
130 68 -70 0
83 97 -40 0
147 14 -3 0
134 -36 -173 0
26 37 -161 0
184 81 -43 0
69 62 -32 0
116 -87 -178 0
177 26 -16 0
195 102 -93 0
75 -76 -95 0
139 -16 -144 0
85 -60 -162 0
34 177 -34 0
82 -144 -158 0
140 9 -161 0
167 -51 -181 0
187 -96 -170 0
117 -160 -15 0
63 -21 -87 0
180 -160 -91 0
18 49 -141 0
147 -177 -179 0
128 -65 -8 0
-103 -116 -119 0
111 -15 -193 0
-115 -186 -47 0
-58 -20 -84 0
108 -25 -157 0
90 42 -194 0
140 129 -149 0
42 -24 -128 0
105 65 -32 0
83 144 -11 0
68 98 -158 0
181 181 -178 0
1 -25 -163 0
89 121 -134 0
24 -136 -17 0
194 45 -163 0
169 13 85 0
164 -156 -126 0
168 72 -190 0
189 112 182 0
58 -110 -44 0
160 68 -36 0
-121 -142 -116 0
83 -169 -155 0
-123 -78 -117 0
131 -186 -58 0
194 156 -185 0
151 126 -104 0
167 13 -165 0
-63 -18 -38 0
194 67 -63 0
65 74 -42 0
69 -167 -80 0
36 42 -78 0
4 37 -57 0
197 114 -81 0
24 80 -116 0
106 -11 -145 0
146 111 -9 0
88 163 -185 0
60 84 -28 0
29 -18 -192 0
153 47 -8 0
148 -114 -64 0
-20 -39 -55 0
192 -131 -133 0
80 24 -195 0
85 182 -192 0
30 -14 -187 0
46 -142 -132 0
147 -151 -29 0
41 34 -143 0
145 16 116 0
115 14 -70 0
139 -144 -105 0
123 141 43 0
163 -95 -48 0
70 -125 -135 0
136 -129 -188 0
157 85 -195 0
155 -71 -178 0
64 176 58 0
175 -169 -103 0
124 -23 -136 0
26 -165 -151 0
104 -95 -170 0
133 -39 -196 0
50 108 -90 0
60 -70 -116 0
38 194 -10 0
54 58 117 0
127 71 -190 0
54 193 168 0
187 -4 -175 0
95 122 -4 0
155 184 84 0
32 46 197 0
78 -7 -98 0
152 199 -11 0
5 -73 -132 0
74 198 66 0
154 169 93 0
82 192 115 0
167 -15 -160 0
70 -66 -139 0
184 19 -8 0
187 64 -94 0
-56 -137 -180 0
198 132 -126 0
134 180 64 0
12 -156 -74 0
117 155 -24 0
14 121 -100 0
33 -195 -11 0
-74 -131 -128 0
33 195 -108 0
-20 -27 -130 0
198 -106 -171 0
23 -162 -182 0
107 -194 -193 0
154 114 -130 0
61 -143 -94 0
192 156 185 0
129 -29 -76 0
-53 -89 -65 0
-184 -141 -171 0
27 -23 -51 0
-83 -124 -25 0
3 17 112 0
13 7 -34 0
178 18 -32 0
38 44 -177 0
145 47 59 0
12 146 -50 0
163 95 89 0
162 62 -177 0
165 61 -87 0
-134 -83 -139 0
79 -78 -13 0
89 129 -199 0
114 183 -20 0
78 -67 -158 0
162 150 -177 0
30 57 -180 0
200 140 -132 0
101 -184 -196 0
136 39 -67 0
16 -13 -93 0
180 8 93 0
-54 -138 -193 0
145 -167 -15 0
71 -17 -36 0
72 -154 -119 0
177 8 -52 0
173 114 112 0
46 110 -75 0
126 194 -198 0
-177 -96 -74 0
6 -21 -42 0
137 79 125 0
91 -70 -183 0
162 33 -27 0
72 -77 -157 0
132 -109 -6 0
176 -20 -168 0
77 90 -181 0
49 -155 -129 0
84 -66 -174 0
116 -70 -134 0
188 86 -37 0
7 4 -156 0
48 -72 -161 0
101 16 -155 0
124 -125 -102 0
30 -32 -29 0
23 197 -135 0
-168 -67 -31 0
21 160 -16 0
161 54 -174 0
26 158 -199 0
67 -17 -146 0
45 -170 -142 0
31 34 -161 0
134 190 -102 0
122 188 -101 0
108 105 -112 0
95 64 -158 0
71 50 52 0
-162 -92 -57 0
127 -159 -142 0
175 -106 -80 0
-173 -28 -143 0
130 -85 -47 0
177 18 -150 0
128 -90 -11 0
108 -128 -94 0
24 44 -131 0
115 22 -117 0
148 -143 -48 0
177 112 -53 0
-155 -116 -5 0
73 -105 -59 0
109 13 -3 0
135 -154 -88 0
8 -100 -31 0
56 161 -1 0
81 -157 -174 0
115 -162 -188 0
132 125 -185 0
-55 -152 -129 0
171 52 -47 0
49 32 -143 0
26 -51 -128 0
186 136 -89 0
21 90 -5 0
188 118 -16 0
59 -188 -79 0
63 -172 -198 0
-35 -190 -168 0
148 69 128 0
159 -114 -74 0
149 13 -180 0
147 59 -196 0
19 177 -9 0
159 -37 -178 0
103 -118 -17 0
102 59 -24 0
178 121 -52 0
37 33 18 0
145 196 199 0
65 -170 -174 0
-88 -126 -108 0
177 84 23 0
25 52 -40 0
3 -49 -155 0
110 86 163 0
164 26 -109 0
-154 -131 -150 0
129 -63 -190 0
59 -38 -174 0
89 18 -89 0
4 -88 -83 0
137 -131 -85 0
17 52 61 0
178 -159 -65 0
185 28 -23 0
22 -44 -193 0
84 92 -59 0
56 115 -183 0
98 -53 -25 0
188 -125 -107 0
123 -16 -156 0
90 97 61 0
12 182 -34 0
-190 -66 -96 0
129 -171 -37 0
95 -43 -65 0
18 -90 -189 0
118 64 118 0
175 -174 -192 0
30 -15 -150 0
85 116 -105 0
73 19 -27 0
-125 -190 -98 0
141 190 -149 0
80 -192 -100 0
151 182 -52 0
8 77 -71 0
99 130 -198 0
-197 -97 -134 0
122 105 -137 0
125 -172 -187 0
161 144 -126 0
121 27 -89 0
108 51 95 0
45 -49 -6 0
187 79 -107 0
-94 -155 -132 0
61 -63 -82 0
5 106 -2 0
135 -183 -187 0
196 -145 -136 0
172 85 -83 0
163 111 -111 0
81 129 198 0
165 37 117 0
21 148 2 0
-147 -123 -131 0
81 18 -14 0
168 113 -167 0
3 165 16 0
121 82 59 0
104 8 -187 0
114 -138 -162 0
95 99 -44 0
172 -114 -98 0
71 87 16 0
76 101 -37 0
-3 -18 -169 0
11 -136 -32 0
156 -160 -169 0
81 79 -43 0
-151 -186 -184 0
148 -181 -162 0
21 -34 -157 0
21 68 -64 0
45 193 -80 0
-102 -72 -12 0
9 -88 -60 0
121 62 43 0
161 -183 -129 0
74 152 -199 0
15 169 -101 0
-11 -158 -200 0
24 -87 -162 0
54 -179 -167 0
24 -127 -139 0
33 21 -101 0
140 -179 -168 0
185 -36 -149 0
45 104 -156 0
37 7 -65 0
109 -42 -142 0
150 19 17 0
103 85 -89 0
49 56 174 0
-168 -194 -117 0
41 117 -167 0
100 148 112 0
39 -141 -89 0
35 199 -9 0
142 37 -190 0
124 164 -150 0
44 -178 -140 0
88 166 -173 0
-105 -34 -199 0
185 168 -108 0
159 50 73 0
38 90 -9 0
59 -20 -91 0
139 -54 -82 0
170 84 175 0
136 1 -164 0
42 -14 -118 0
181 19 64 0
189 -182 -108 0
43 6 -190 0
189 27 -71 0
139 107 147 0
141 131 29 0
58 182 -88 0
131 148 100 0
31 -40 -48 0
76 61 189 0
42 -108 -30 0
197 59 -152 0
-161 -175 -114 0
153 138 -48 0
145 -101 -8 0
3 -189 -59 0
43 -134 -60 0
144 -51 -145 0
100 55 -118 0
90 173 -25 0
153 40 -143 0
36 -52 -113 0
-8 -142 -71 0
13 187 -67 0
192 -134 -14 0
-60 -138 -148 0
178 -64 -21 0
-114 -13 -87 0
172 -166 -171 0
55 91 -76 0
76 -81 -43 0
-102 -52 -153 0
137 -100 -4 0
11 93 -132 0
68 -199 -185 0
193 88 137 0
177 55 -154 0
125 176 -161 0
98 -31 -189 0
62 179 -187 0
60 -27 -64 0
88 -52 -100 0
140 -194 -47 0
128 -13 -15 0
43 166 -186 0
197 -113 -26 0
56 -156 -165 0
189 155 -93 0
22 -49 -31 0
-140 -117 -189 0
156 34 -185 0
40 49 -100 0
154 99 -92 0
21 -90 -181 0
87 -168 -14 0
110 1 -150 0
73 24 200 0
38 194 -178 0
-33 -133 -116 0
-103 -38 -152 0
3 126 -143 0
133 74 -80 0
129 140 78 0
191 164 -72 0
189 -144 -136 0
79 116 84 0
196 -84 -6 0
-42 -66 -155 0
155 4 -36 0
92 178 -92 0
140 -163 -186 0
-185 -91 -124 0
50 -55 -155 0
123 -176 -171 0
65 -180 -156 0
10 120 -146 0
53 134 -25 0
118 -130 -12 0
83 105 -107 0
11 -132 -41 0
27 -113 -108 0
158 33 175 0
100 54 -1 0
97 83 18 0
40 104 -3 0
197 81 86 0
86 -19 -30 0
184 -111 -1 0
116 136 -184 0
56 117 -26 0
124 171 156 0
77 180 -172 0
79 39 -152 0
22 -76 -145 0
44 -83 -192 0
58 198 -143 0
135 95 -47 0
73 -5 -116 0
-99 -12 -47 0
39 186 -170 0
25 73 -44 0
122 160 -61 0
-160 -32 -141 0
200 -26 -85 0
34 63 143 0
56 194 -162 0
-110 -53 -3 0
43 57 -85 0
109 -96 -191 0
40 187 69 0
159 93 -69 0
75 60 -85 0
169 -44 -119 0
96 163 168 0
188 25 43 0
193 23 98 0
51 -119 -33 0
-189 -198 -181 0
131 200 -129 0
-144 -156 -167 0
194 -20 -17 0
-14 -120 -182 0
67 126 -18 0
191 -97 -68 0
76 162 -13 0
76 14 -8 0
118 1 -120 0
38 -166 -140 0
93 40 -28 0
119 -5 -171 0
105 169 -154 0
44 21 172 0
62 -83 -152 0
130 169 -12 0
115 -151 -174 0
193 -34 -29 0
105 -126 -35 0
35 8 -114 0
132 -22 -186 0
77 135 -16 0
158 179 -79 0
119 199 -1 0
107 -4 -102 0
197 -58 -40 0
48 -74 -90 0
172 89 -39 0
-133 -13 -82 0
196 -134 -178 0
140 96 -120 0
-44 -105 -200 0
56 68 46 0
52 52 -13 0
6 113 -128 0
161 196 -108 0
161 46 -70 0
7 42 -170 0
141 182 -197 0
-120 -168 -33 0
148 -19 -128 0
144 -119 -119 0
14 161 -78 0
161 20 -169 0
148 -194 -76 0
52 -86 -56 0
73 -175 -119 0
140 -185 -76 0
63 -40 -59 0
95 144 163 0
183 -131 -32 0
66 136 -110 0
-38 -24 -179 0
86 15 -153 0
-107 -29 -86 0
181 82 -135 0
-127 -155 -22 0
92 154 -68 0
28 -82 -69 0
129 103 -102 0
94 83 -72 0
47 -156 -14 0
126 176 2 0
-32 -7 -33 0
53 12 -100 0
-39 -115 -160 0
43 50 -139 0
136 61 32 0
117 89 -200 0
88 -43 -9 0
199 81 1 0
172 196 -178 0
36 -79 -192 0
179 183 -91 0
26 27 -119 0
-50 -48 -4 0
174 -199 -153 0
65 94 -148 0
79 -35 -112 0
183 -77 -15 0
19 -54 -153 0
165 -90 -41 0
-26 -40 -89 0
20 -136 -16 0
-96 -113 -180 0
195 193 -104 0
180 -41 -34 0
44 -175 -107 0
126 130 194 0
-196 -139 -181 0
9 175 -74 0
45 79 139 0
35 -84 -144 0
25 185 -146 0
64 115 -58 0
139 -146 -167 0
185 -121 -17 0
66 -70 -95 0
39 137 182 0
164 -80 -92 0
89 -74 -51 0
92 -73 -191 0
148 10 -82 0
180 -162 -9 0
145 -34 -93 0
35 -93 -44 0
4 161 -91 0
-191 -80 -5 0
146 -55 -109 0
87 -178 -163 0
-1 -161 -19 0
57 88 118 0
67 -67 -126 0
164 69 -71 0
-66 -154 -183 0
188 -86 -127 0
62 150 45 0
105 -6 -127 0
60 -196 -103 0
-167 -189 -174 0
133 -127 -176 0
147 -176 -87 0
-159 -189 -24 0
45 -58 -55 0
149 162 46 0
74 5 -47 0
20 -195 -119 0
113 29 92 0
69 47 -198 0
70 167 34 0
196 -146 -135 0
125 -107 -174 0
92 -121 -163 0
196 -146 -132 0
98 80 -144 0
14 188 -195 0
85 147 -16 0
111 182 -11 0
109 -138 -15 0
75 5 10 0
124 22 -175 0
-192 -131 -69 0
86 135 -166 0
177 -3 -58 0
95 98 -152 0
123 -93 -190 0
163 -31 -148 0
184 2 -115 0
-56 -7 -21 0
143 -163 -20 0
24 15 -102 0
-124 -116 -6 0
-129 -161 -87 0
14 -92 -172 0
-98 -86 -182 0
192 -150 -35 0
132 146 -128 0
164 -85 -176 0
-83 -94 -186 0
-142 -105 -128 0
-173 -72 -143 0
170 100 6 0
102 -56 -186 0
120 40 -102 0
-167 -111 -34 0
68 -179 -17 0
105 114 148 0
159 45 -179 0
2 137 -4 0
26 166 -200 0
90 197 -94 0
90 91 123 0
195 -182 -150 0
67 65 -68 0
-123 -70 -163 0
157 -23 -92 0
127 21 -53 0
192 -49 -173 0
44 135 -154 0
21 -109 -94 0
61 119 -66 0
36 -77 -78 0
198 -36 -80 0
180 192 -124 0
-133 -53 -143 0
197 198 -137 0
119 186 -117 0
185 113 -8 0
-156 -42 -150 0
11 155 -49 0
21 36 -121 0
28 155 -95 0
17 113 -135 0
106 193 -3 0
150 124 -109 0
-174 -179 -64 0
123 154 -182 0
193 27 -173 0
146 106 -152 0
104 -73 -14 0
20 -59 -159 0
129 185 -63 0
139 91 -191 0
177 188 -180 0
86 15 53 0
180 124 -48 0
60 92 -4 0
-76 -124 -36 0
170 77 -5 0
11 -18 -119 0
64 47 108 0
169 174 -45 0
-138 -51 -123 0
30 97 -69 0
80 -193 -159 0
-188 -144 -166 0
126 -43 -64 0
106 197 -111 0
164 -131 -27 0
196 -196 -81 0
130 102 -123 0
140 91 139 0
137 -38 -177 0
2 79 155 0
98 107 -151 0
117 -29 -148 0
10 118 -104 0
-167 -84 -82 0
179 153 -188 0
161 45 -50 0
56 -71 -21 0
36 -103 -37 0
163 163 -100 0
136 -93 -96 0
101 -88 -82 0
103 129 181 0
76 145 -94 0
123 124 -48 0
30 10 -50 0
79 107 74 0
133 -169 -115 0
13 136 -28 0
-18 -20 -170 0
155 187 -145 0
1 97 126 0
-119 -115 -184 0
122 -84 -83 0
129 -185 -86 0
130 73 -32 0
-38 -15 -118 0
-45 -187 -120 0
59 -185 -157 0
38 -119 -199 0
1 -198 -22 0
46 66 19 0
50 -129 -75 0
188 129 -86 0
149 181 -6 0
20 -82 -138 0
75 150 -16 0
11 47 -154 0
108 -164 -147 0
112 102 -37 0
38 183 -167 0
120 97 -79 0
-54 -134 -137 0
-43 -189 -12 0
175 -169 -98 0
96 55 -81 0
-112 -20 -180 0
35 -75 -113 0
-143 -46 -196 0
58 26 -107 0
-191 -58 -136 0
189 -47 -200 0
104 45 -45 0
103 -64 -11 0
134 -94 -19 0
161 -147 -179 0
56 169 -193 0
25 -44 -39 0
121 59 -32 0
42 -185 -51 0
197 10 129 0
29 121 -128 0
7 -24 -142 0
157 7 -97 0
124 8 -7 0
150 18 -107 0
142 132 37 0
107 197 -139 0
39 34 -75 0
-151 -88 -17 0
8 76 22 0
18 109 -84 0
12 172 -186 0
140 -142 -75 0
109 37 78 0
138 177 -76 0
51 -167 -191 0
23 -85 -64 0
58 157 -59 0
2 137 116 0
104 75 -70 0
-119 -129 -91 0
134 101 -57 0
182 -67 -149 0
180 -199 -24 0
-190 -174 -46 0
149 177 -135 0
61 -78 -27 0
84 170 -15 0
35 -151 -33 0
29 7 -71 0
194 186 -62 0
169 109 -147 0
181 -161 -24 0
118 26 -195 0
-66 -84 -82 0
147 -180 -70 0
174 7 -137 0
179 57 -175 0
30 -20 -132 0
191 -8 -133 0
79 -120 -34 0
148 -113 -197 0
91 9 -61 0
80 134 186 0
120 142 -16 0
100 115 48 0
121 174 -65 0
-169 -80 -61 0
196 176 -33 0
87 -131 -144 0
187 -49 -134 0
100 178 -178 0
-1 -39 -127 0
56 172 -125 0
155 -57 -89 0
17 90 -48 0
171 150 -139 0
57 -26 -68 0
-154 -134 -72 0
65 -126 -69 0
87 -73 -165 0
178 -116 -66 0
170 189 -176 0
2 -179 -121 0
3 46 -151 0
120 -117 -17 0
60 35 -130 0
44 -18 -172 0
18 82 -139 0
