NAME: champ_Shiwa_dm_log_p_it2
TYPE: TSP
DIMENSION: 20
EDGE_WEIGHT_TYPE: EXPLICIT
EDGE_WEIGHT_FORMAT: UPPER_ROW
EDGE_WEIGHT_SECTION
434 487 502 494 455 535 518 508 459 553 486 555 448 400 466 472 416 422 474
537 465 557 508 505 471 548 448 492 438 471 490 515 579 488 551 525 496
487 555 444 410 491 515 487 518 592 490 474 408 545 453 477 480 459
501 560 476 534 475 530 516 574 497 509 452 519 535 509 496 505
471 514 459 474 552 512 543 546 552 498 355 532 509 520 534
471 414 573 487 425 480 456 530 531 474 527 508 517 513
445 468 451 552 474 500 523 496 512 535 507 493 551
496 469 460 512 522 486 447 530 515 493 464 483
499 535 572 588 431 543 519 494 498 520 500
529 503 473 524 507 446 518 456 511 477
524 410 524 574 476 487 509 547 581
553 526 481 474 456 427 552 522
463 478 440 595 569 526 502
506 492 499 441 485 489
454 497 505 419 522
495 536 466 555
450 505 489
513 558
511
EOF
