NAME: champ_CMA_dm_neg_p_it4
TYPE: TSP
DIMENSION: 20
EDGE_WEIGHT_TYPE: EXPLICIT
EDGE_WEIGHT_FORMAT: UPPER_ROW
EDGE_WEIGHT_SECTION
479 504 452 508 552 421 581 461 536 485 498 498 450 477 579 505 618 519 477
504 504 514 488 527 535 531 479 475 522 547 512 528 541 479 487 425 457
495 433 475 504 614 456 555 539 493 543 530 454 482 570 536 478 527
534 501 522 532 493 430 535 528 589 487 447 452 420 554 510 530
433 543 537 560 474 483 506 533 509 536 576 474 614 539 502
596 571 481 542 443 510 527 489 419 510 524 521 543 467
478 514 500 501 472 499 500 495 413 567 573 557 433
497 396 522 531 461 442 457 508 544 467 566 479
541 500 458 550 483 620 522 522 418 553 408
539 657 560 611 555 524 529 489 454 382
418 505 449 527 538 529 538 486 597
604 588 495 512 552 541 403 466
552 578 446 500 480 474 448
453 387 553 523 464 477
463 561 516 497 495
548 462 564 428
487 524 514
512 482
470
EOF
