NAME: champ_DiagonalCMA_U10000.tsp
TYPE: TSP
DIMENSION: 20
EDGE_WEIGHT_TYPE: EXPLICIT
EDGE_WEIGHT_FORMAT: UPPER_ROW
EDGE_WEIGHT_SECTION
4419 4524 5444 6597 7602 4472 5165 6436 5776 5600 4915 7616 4860 8093 1908 4916 7180 5419 4162
6927 8937 7079 4269 6562 6306 1853 5391 5669 4726 4661 7518 4981 4762 5982 4345 5201 7378
4830 7656 2924 8672 8381 4720 9159 4420 6742 6791 5608 5551 4663 4767 5992 8071 4091
5608 4089 5846 4143 8434 4591 5297 2281 3920 2904 4269 3291 7814 3016 4901 4129
2721 3704 3401 4704 5497 2755 5255 3124 3264 2990 3467 4317 5880 4471 1729
3562 6730 6359 2691 5549 3998 3783 5214 6931 4403 3253 70 7673 5096
5032 4745 3910 3833 6558 2782 5704 1052 6062 3353 3211 5084 3866
7758 6238 7060 5913 4968 5396 3836 3040 3781 4808 2372 4976
5287 6157 4114 634 3468 6242 4967 4473 4305 4559 4012
6314 5633 5372 6573 1819 8349 4460 5440 6125 5532
4712 4043 3178 3913 2562 4317 6349 7330 4618
3505 5291 4462 4361 1732 6372 7625 6183
4439 2556 2606 2273 5007 5135 7130
4054 6703 3987 5793 3623 2723
4230 5018 3601 4547 8231
4915 3105 2816 7412
5940 3025 2231
4737 3080
4086

EOF
