NAME: s2_dm_log_PolyCMA
TYPE: TSP
DIMENSION: 20
EDGE_WEIGHT_TYPE: EXPLICIT
EDGE_WEIGHT_FORMAT: UPPER_ROW
EDGE_WEIGHT_SECTION
344 295 835 962 404 629 613 300 654 526 557 631 446 646 633 563 500 261 496
107 332 437 240 165 586 521 125 368 467 392 703 697 405 760 573 204 864
387 435 182 509 237 593 419 618 287 792 275 422 531 384 253 383 526
628 948 474 752 359 633 523 725 785 602 384 652 290 298 543 599
735 829 882 655 531 654 565 577 382 808 643 409 453 628 634
632 727 437 783 612 369 596 355 428 234 742 224 205 388
433 503 761 484 766 701 245 120 357 256 768 240 766
431 622 592 465 488 287 480 850 253 687 284 771
271 371 511 421 643 278 392 500 254 462 453
543 853 347 649 422 206 292 301 437 412
609 789 722 618 349 682 493 417 770
509 183 593 352 719 937 873 444
329 348 521 740 370 423 932
421 463 325 321 482 514
690 382 532 475 589
119 150 689 316
687 353 545
666 613
392
EOF
