NAME: s2_dm_pow2_Shiwa
TYPE: TSP
DIMENSION: 20
EDGE_WEIGHT_TYPE: EXPLICIT
EDGE_WEIGHT_FORMAT: UPPER_ROW
EDGE_WEIGHT_SECTION
452 484 501 461 471 548 507 511 470 557 496 567 444 407 437 465 393 416 477
522 460 571 491 494 467 560 444 511 437 478 468 522 607 486 518 516 498
494 545 431 410 462 519 506 522 610 494 466 412 554 454 489 474 462
508 558 468 545 485 526 517 561 507 518 467 511 533 508 511 523
480 509 458 490 566 510 543 535 549 493 382 512 490 511 530
470 419 581 492 436 489 480 509 506 474 534 498 501 504
463 465 454 533 465 506 523 487 498 538 503 507 557
503 469 460 540 517 486 434 524 530 481 463 467
497 542 571 606 438 553 528 500 509 509 511
534 503 469 503 510 452 527 461 501 480
532 404 532 556 472 499 500 556 587
556 506 477 475 448 456 556 512
465 474 440 598 554 528 503
508 485 487 450 478 486
456 495 480 443 521
496 506 465 576
448 527 494
499 547
490
EOF
