NAME: s2_dm_pow2_PolyCMA
TYPE: TSP
DIMENSION: 20
EDGE_WEIGHT_TYPE: EXPLICIT
EDGE_WEIGHT_FORMAT: UPPER_ROW
EDGE_WEIGHT_SECTION
518 543 709 728 977 653 658 432 801 741 808 769 442 665 562 723 565 543 575
292 573 704 346 469 893 900 415 554 649 791 132 290 509 516 584 198 570
683 778 435 233 658 128 684 617 427 708 140 638 490 381 295 211 256
513 758 302 884 520 661 582 639 542 410 503 744 579 237 260 327
593 602 306 425 519 353 414 625 269 777 525 655 297 476 355
380 432 245 609 928 358 734 705 801 423 713 314 556 503
710 621 769 396 209 532 162 627 580 379 214 434 478
623 416 210 677 555 600 292 232 630 814 186 316
339 165 122 671 857 370 467 640 633 605 591
755 464 780 633 763 671 634 409 564 585
219 619 403 335 477 371 523 561 493
555 404 303 895 858 146 188 245
367 646 868 560 396 424 475
732 209 294 500 223 435
627 460 286 795 342
760 716 714 327
655 521 509
585 796
365
EOF
