NAME: s2_dm_neg_PolyCMA
TYPE: TSP
DIMENSION: 20
EDGE_WEIGHT_TYPE: EXPLICIT
EDGE_WEIGHT_FORMAT: UPPER_ROW
EDGE_WEIGHT_SECTION
681 948 481 297 185 132 627 47 536 482 250 645 613 525 553 619 321 179 559
235 521 615 430 226 345 689 474 789 701 661 356 410 906 655 229 372 375
400 725 286 605 459 636 278 441 793 467 811 207 576 717 520 770 685
719 270 406 647 662 318 463 549 869 347 348 626 566 729 328 710
684 473 509 674 615 724 654 580 628 428 658 832 760 918 589
640 460 850 904 546 747 621 346 623 549 514 867 503 398
840 668 359 608 682 432 605 527 619 703 291 86 648
380 623 423 241 563 542 213 303 542 752 629 250
312 153 428 306 346 246 418 699 562 775 729
256 452 378 107 432 497 603 238 485 95
516 817 814 55 267 277 161 463 215
302 496 736 621 607 692 399 590
27 535 328 580 390 613 676
456 560 692 162 264 387
169 370 651 156 372
443 569 381 871
616 559 600
341 486
693
EOF
