NAME: s2_dm_pow2_NgIohRS
TYPE: TSP
DIMENSION: 20
EDGE_WEIGHT_TYPE: EXPLICIT
EDGE_WEIGHT_FORMAT: UPPER_ROW
EDGE_WEIGHT_SECTION
550 452 509 406 524 487 524 480 642 481 403 550 475 380 574 505 534 638 534
485 431 550 553 506 308 470 535 579 435 611 584 451 470 599 452 471 458
489 490 414 617 619 603 561 474 474 518 519 556 500 497 449 590 383
413 474 417 412 494 448 498 508 590 461 494 440 554 558 534 581
423 568 588 497 508 508 419 547 425 566 605 391 456 458 493
615 436 475 548 580 504 461 569 463 544 443 549 501 601
477 489 581 665 453 562 685 469 432 569 477 540 444
504 367 522 540 350 552 529 424 544 462 381 530
492 566 497 525 630 610 482 582 608 622 495
606 543 498 468 519 513 480 478 616 467
471 619 580 374 562 565 546 451 515
584 507 425 402 634 649 455 509
418 480 531 580 583 743 425
600 578 505 496 510 506
542 408 503 436 466
459 352 578 468
456 449 476
418 414
481
EOF
