NAME: s2_dm_neg_Shiwa
TYPE: TSP
DIMENSION: 20
EDGE_WEIGHT_TYPE: EXPLICIT
EDGE_WEIGHT_FORMAT: UPPER_ROW
EDGE_WEIGHT_SECTION
447 470 492 462 474 548 532 523 466 529 489 576 462 426 466 463 409 442 478
512 468 561 516 493 455 542 456 513 451 495 492 515 565 488 550 512 512
502 544 437 413 469 524 496 499 579 486 464 402 544 476 490 472 470
510 544 467 526 475 515 512 566 498 518 469 524 538 514 505 514
468 512 446 486 555 493 549 544 558 495 353 512 496 525 523
467 419 565 486 417 456 460 517 512 472 540 501 513 504
452 477 461 535 460 492 523 499 515 521 502 508 540
515 468 452 538 507 476 453 520 511 491 482 466
520 525 582 601 431 560 524 485 499 517 501
546 492 467 519 506 454 511 445 495 476
528 409 537 561 485 475 523 556 574
558 511 489 476 448 446 548 534
467 477 442 601 566 524 506
508 485 495 458 492 482
439 488 497 427 526
504 523 460 549
454 522 490
504 551
520
EOF
