NAME: s2_dm_neg_NgIohRS
TYPE: TSP
DIMENSION: 20
EDGE_WEIGHT_TYPE: EXPLICIT
EDGE_WEIGHT_FORMAT: UPPER_ROW
EDGE_WEIGHT_SECTION
620 512 658 389 557 311 485 535 588 514 515 495 471 764 463 65 428 525 592
432 556 630 492 515 446 622 564 467 592 509 412 755 639 308 352 367 639
472 298 564 382 547 573 564 451 389 496 484 495 407 613 537 398 635
458 362 554 436 811 458 590 659 883 728 643 257 330 526 701 242
445 506 531 565 539 638 668 521 423 519 599 441 320 502 591
463 593 475 617 552 554 566 634 508 471 331 398 410 556
725 441 480 510 408 409 429 329 374 539 147 486 545
500 869 503 522 600 152 595 553 536 375 539 352
655 647 559 554 574 560 610 298 482 352 510
555 358 679 616 724 696 503 605 381 551
283 438 289 453 230 330 592 511 577
319 615 465 430 502 344 687 484
612 359 508 688 467 141 488
762 730 570 390 519 394
274 518 489 492 483
534 553 689 541
515 525 655
538 599
383
EOF
