NAME: s2_dm_log_NgIohRS
TYPE: TSP
DIMENSION: 20
EDGE_WEIGHT_TYPE: EXPLICIT
EDGE_WEIGHT_FORMAT: UPPER_ROW
EDGE_WEIGHT_SECTION
385 515 474 467 506 513 499 553 472 543 603 532 484 500 513 458 571 521 591
441 478 563 489 541 468 352 503 514 562 529 547 499 471 510 537 404 408
509 584 476 554 470 513 440 524 540 459 540 432 417 535 658 499 522
572 522 586 609 480 492 551 512 517 497 463 522 446 554 490 457
540 471 481 417 480 545 461 587 512 548 502 476 543 444 480
534 537 486 496 512 404 493 511 468 559 574 515 447 518
640 532 491 568 482 609 492 558 456 531 470 524 506
530 509 520 505 518 445 474 532 485 469 449 491
598 479 490 484 517 562 489 490 499 516 545
497 472 552 515 526 620 523 494 486 470
520 484 507 469 536 405 417 537 529
480 421 594 553 467 498 492 428
600 437 531 458 522 548 547
453 477 501 510 525 598
423 596 441 522 528
539 597 510 438
455 505 592
568 485
504
EOF
