p cnf 200 1000
-165 -53 -101 0
105 20 -98 0
76 141 179 0
139 70 -70 0
158 -104 -193 0
-4 -31 -115 0
163 148 96 0
118 112 181 0
-159 -101 -59 0
-167 -104 -199 0
-88 -175 -129 0
34 153 35 0
130 163 -46 0
5 -118 -72 0
113 -98 -162 0
61 -136 -126 0
131 113 -39 0
196 189 -79 0
148 -131 -108 0
6 162 -117 0
138 31 -180 0
84 -21 -70 0
27 -28 -181 0
-98 -29 -154 0
147 30 -5 0
131 161 -168 0
96 -199 -13 0
126 -141 -183 0
183 144 87 0
-197 -159 -77 0
138 39 -144 0
84 2 -34 0
144 80 -35 0
-54 -131 -7 0
85 -110 -131 0
28 169 189 0
195 -89 -158 0
25 77 -163 0
-46 -5 -196 0
31 -166 -55 0
120 -54 -110 0
154 4 -186 0
-167 -129 -139 0
108 98 -35 0
27 -195 -159 0
-123 -39 -196 0
169 108 -20 0
116 174 150 0
44 -69 -185 0
-11 -27 -194 0
13 148 67 0
136 -181 -1 0
15 -54 -99 0
64 -174 -163 0
58 -40 -28 0
199 -57 -46 0
80 -10 -145 0
67 194 102 0
171 -148 -61 0
-12 -186 -161 0
26 87 -66 0
45 -104 -120 0
134 -135 -109 0
13 33 -50 0
51 -179 -181 0
78 192 107 0
176 -80 -48 0
136 173 140 0
76 4 -73 0
134 -128 -186 0
173 94 33 0
27 111 93 0
19 -115 -13 0
-105 -143 -51 0
49 -115 -67 0
131 -98 -72 0
78 -193 -78 0
58 89 -183 0
192 -98 -175 0
103 -150 -145 0
162 143 95 0
46 138 -162 0
89 66 -24 0
-195 -40 -99 0
140 54 125 0
114 84 -31 0
-64 -80 -156 0
102 64 -136 0
36 20 -69 0
94 -129 -5 0
16 193 -118 0
37 -55 -197 0
63 -119 -113 0
-174 -118 -88 0
157 -15 -198 0
149 -134 -1 0
153 95 190 0
108 26 119 0
98 33 9 0
146 -180 -52 0
-23 -193 -143 0
83 -47 -121 0
71 -189 -62 0
125 186 -75 0
139 190 -96 0
1 -30 -140 0
149 -16 -106 0
137 -103 -18 0
140 78 48 0
131 113 -39 0
155 -118 -186 0
41 132 -185 0
160 160 175 0
20 125 -14 0
153 141 -48 0
177 195 -180 0
10 19 -42 0
143 -167 -109 0
80 123 -156 0
113 -162 -84 0
185 -81 -64 0
107 -116 -88 0
23 171 -35 0
79 9 45 0
-121 -5 -134 0
87 -5 -97 0
32 -109 -164 0
181 -88 -166 0
72 -23 -110 0
145 42 -85 0
-154 -125 -190 0
38 -72 -130 0
77 -81 -93 0
3 -145 -17 0
56 -43 -45 0
35 -57 -60 0
184 122 -32 0
125 38 -96 0
174 -23 -180 0
39 75 36 0
176 -13 -165 0
70 -43 -88 0
194 -188 -137 0
139 103 -106 0
-92 -124 -32 0
-66 -28 -118 0
27 40 -17 0
20 16 -193 0
167 -69 -1 0
182 -50 -179 0
41 161 152 0
146 -59 -81 0
194 162 -167 0
182 170 4 0
145 -18 -94 0
46 180 -154 0
88 -133 -111 0
14 -13 -55 0
84 16 -54 0
133 -12 -2 0
-10 -69 -79 0
-45 -101 -120 0
-26 -69 -175 0
65 -192 -173 0
13 50 -83 0
97 150 71 0
136 151 -164 0
154 -25 -53 0
65 25 42 0
67 -113 -76 0
148 38 -49 0
109 91 -68 0
45 -102 -70 0
173 -92 -21 0
-149 -139 -102 0
54 -134 -52 0
12 181 114 0
69 -42 -32 0
45 140 -161 0
141 178 -117 0
61 34 44 0
-98 -81 -173 0
156 -95 -192 0
114 55 -48 0
155 150 72 0
116 9 -91 0
158 61 -10 0
175 99 -175 0
162 83 -40 0
33 149 141 0
68 42 181 0
-28 -66 -147 0
54 89 -172 0
62 63 -110 0
143 35 23 0
186 121 68 0
169 58 -75 0
-86 -159 -195 0
-14 -52 -53 0
50 141 -91 0
113 101 -87 0
-120 -91 -37 0
172 114 -106 0
164 7 -46 0
-195 -56 -34 0
-127 -199 -52 0
171 92 -190 0
147 69 -54 0
144 31 7 0
8 -169 -107 0
154 -135 -105 0
164 -98 -123 0
50 -152 -143 0
124 -48 -17 0
10 54 -103 0
43 117 -7 0
198 -47 -10 0
168 9 -120 0
109 80 76 0
12 32 -75 0
143 3 -37 0
173 2 -55 0
-13 -119 -175 0
59 -121 -53 0
195 -163 -131 0
45 17 -1 0
-8 -77 -151 0
199 97 -88 0
133 65 -84 0
88 136 -37 0
160 -139 -143 0
30 -48 -61 0
100 7 155 0
9 -110 -65 0
70 35 191 0
177 -15 -195 0
183 -108 -23 0
18 -71 -86 0
93 170 -101 0
165 104 -93 0
156 125 -57 0
198 65 -78 0
81 198 -88 0
156 -59 -86 0
53 -187 -198 0
29 80 -116 0
60 78 -33 0
-76 -145 -42 0
168 -185 -74 0
85 -14 -145 0
160 150 -13 0
53 12 -25 0
-96 -146 -175 0
67 -62 -148 0
50 -33 -189 0
152 174 -132 0
32 151 -43 0
127 -107 -4 0
186 -180 -157 0
124 198 162 0
138 152 -112 0
181 9 58 0
130 21 -43 0
13 -82 -20 0
46 138 96 0
16 135 76 0
143 63 -103 0
156 139 -53 0
83 107 -170 0
172 -152 -179 0
116 -131 -40 0
125 -110 -4 0
87 -38 -71 0
131 -3 -110 0
-185 -41 -117 0
127 -37 -116 0
180 68 -20 0
171 -44 -93 0
82 -197 -174 0
110 148 -167 0
15 108 -145 0
168 176 52 0
66 96 -52 0
151 174 -67 0
197 -181 -93 0
66 -25 -32 0
149 87 -20 0
143 89 -104 0
51 168 -17 0
155 -129 -152 0
-108 -2 -100 0
47 -44 -102 0
6 -92 -183 0
41 49 -85 0
109 184 -88 0
33 77 -90 0
119 2 -42 0
89 -83 -154 0
67 -72 -145 0
187 -89 -52 0
123 192 -128 0
91 -66 -180 0
124 7 160 0
50 -66 -59 0
53 73 -67 0
86 78 -117 0
122 198 95 0
69 -155 -180 0
166 54 79 0
171 -169 -62 0
36 -121 -195 0
25 31 -26 0
60 119 -73 0
80 -118 -174 0
145 -17 -135 0
12 -195 -197 0
102 -126 -184 0
-86 -10 -126 0
178 180 51 0
4 -13 -111 0
70 43 -71 0
-143 -61 -15 0
70 -133 -144 0
48 144 -24 0
63 109 -154 0
120 76 -1 0
71 90 -101 0
24 -162 -21 0
-166 -196 -124 0
122 -176 -110 0
146 -95 -90 0
50 24 -118 0
160 187 -22 0
51 55 -51 0
45 -95 -119 0
163 114 -142 0
47 101 -57 0
-76 -31 -42 0
141 109 -112 0
185 -34 -4 0
178 -165 -66 0
107 133 181 0
194 -158 -151 0
182 -157 -94 0
171 130 -198 0
186 -169 -13 0
24 -164 -85 0
190 80 118 0
166 2 37 0
112 -104 -66 0
128 -110 -70 0
-26 -143 -97 0
162 104 -37 0
190 61 -1 0
122 77 119 0
4 -97 -28 0
-145 -29 -52 0
27 -95 -74 0
199 -115 -117 0
152 193 -120 0
61 1 -193 0
106 73 -56 0
72 9 -97 0
94 -100 -1 0
3 96 -14 0
53 -32 -48 0
80 21 -188 0
116 -127 -177 0
153 29 -12 0
194 49 -76 0
13 -103 -28 0
114 -62 -45 0
86 -161 -55 0
18 107 -162 0
127 32 -86 0
-45 -174 -115 0
-177 -92 -13 0
-113 -14 -97 0
17 51 -29 0
142 -142 -17 0
43 167 -167 0
-83 -187 -126 0
-37 -52 -70 0
98 154 -180 0
191 -123 -15 0
190 -163 -114 0
107 -149 -81 0
49 157 -62 0
179 -159 -188 0
182 122 -83 0
161 -47 -199 0
20 74 -67 0
18 -173 -161 0
65 -190 -76 0
192 -130 -131 0
87 106 -183 0
164 -99 -59 0
155 79 -145 0
66 64 78 0
197 151 -185 0
-176 -115 -33 0
122 9 -10 0
77 -67 -190 0
178 -48 -88 0
197 126 -40 0
154 64 -5 0
49 -37 -147 0
170 118 -142 0
151 86 -98 0
113 51 -69 0
158 -163 -97 0
128 80 -127 0
159 182 -36 0
155 -143 -54 0
179 95 122 0
-117 -151 -51 0
94 -133 -200 0
144 43 -104 0
85 -58 -41 0
49 -153 -67 0
72 -161 -63 0
-185 -149 -78 0
164 39 -146 0
146 99 -61 0
140 -188 -117 0
81 60 -164 0
9 -96 -96 0
119 95 -54 0
152 -39 -92 0
39 -55 -13 0
188 140 70 0
134 84 -143 0
136 -159 -56 0
58 -152 -191 0
65 60 -66 0
193 129 -22 0
69 117 -67 0
-118 -69 -45 0
130 47 -198 0
167 41 47 0
37 -166 -90 0
128 183 -75 0
45 140 -35 0
57 -108 -79 0
144 -134 -132 0
172 -21 -125 0
8 113 -169 0
68 96 -38 0
110 166 -94 0
128 147 -126 0
3 -140 -90 0
-129 -73 -35 0
-5 -86 -10 0
195 90 -35 0
106 -197 -165 0
-131 -8 -44 0
-54 -135 -114 0
6 16 -83 0
82 -139 -32 0
44 -180 -145 0
33 27 -11 0
106 -40 -157 0
73 26 -145 0
48 5 -57 0
2 140 -121 0
-13 -166 -125 0
57 11 -14 0
173 53 -127 0
82 -114 -115 0
89 50 25 0
129 -7 -156 0
9 -99 -124 0
51 -111 -123 0
46 -148 -31 0
128 4 -177 0
113 -43 -66 0
119 125 -185 0
52 -86 -118 0
179 -115 -90 0
98 128 -70 0
25 -88 -39 0
194 50 -64 0
199 33 16 0
122 -193 -94 0
49 -146 -96 0
-196 -169 -6 0
95 -51 -57 0
123 182 -129 0
39 -171 -134 0
12 -184 -152 0
134 92 173 0
182 -198 -178 0
-189 -61 -123 0
128 84 -186 0
138 -122 -94 0
42 188 90 0
104 -64 -195 0
36 -33 -107 0
187 157 -88 0
-1 -174 -178 0
115 -5 -8 0
9 -57 -117 0
146 111 49 0
81 173 -89 0
93 -107 -185 0
-102 -149 -53 0
183 146 -1 0
198 9 -29 0
92 136 -103 0
47 105 66 0
65 114 -134 0
195 -199 -144 0
82 -91 -11 0
186 -143 -56 0
127 -168 -134 0
48 -8 -1 0
118 20 -127 0
146 112 97 0
53 60 -84 0
47 -118 -51 0
71 -88 -181 0
198 -193 -78 0
49 -68 -198 0
144 105 -185 0
34 113 2 0
68 -197 -157 0
46 70 -150 0
94 117 -143 0
179 -60 -174 0
-59 -4 -110 0
30 174 -191 0
184 -83 -184 0
133 144 -122 0
126 53 -24 0
9 197 -1 0
-193 -91 -187 0
97 136 -119 0
76 -97 -62 0
100 -195 -123 0
197 -93 -185 0
195 42 -171 0
149 54 186 0
188 -174 -97 0
157 112 -183 0
91 6 -143 0
184 -189 -176 0
-143 -199 -107 0
172 -190 -97 0
130 138 -107 0
2 -86 -87 0
100 182 -164 0
98 -147 -90 0
58 -19 -96 0
116 -129 -126 0
127 3 -198 0
129 114 -125 0
16 -64 -80 0
72 132 130 0
98 -132 -124 0
169 -179 -173 0
133 42 -125 0
121 51 -26 0
99 -47 -106 0
23 177 -178 0
140 191 141 0
23 -73 -189 0
197 -1 -194 0
185 -15 -110 0
161 -104 -83 0
192 27 -9 0
-102 -13 -55 0
58 122 128 0
188 178 12 0
-190 -140 -28 0
28 60 100 0
-125 -145 -179 0
156 -158 -197 0
89 -157 -20 0
161 -184 -141 0
6 121 -11 0
162 -75 -192 0
47 84 151 0
14 196 -132 0
96 103 -110 0
64 -94 -74 0
163 -5 -130 0
99 -25 -172 0
11 -194 -55 0
186 -94 -59 0
143 179 -112 0
126 15 -80 0
89 -90 -161 0
107 106 163 0
122 145 -86 0
-183 -93 -134 0
118 27 -186 0
114 52 -193 0
146 51 -115 0
188 -82 -35 0
137 -75 -25 0
82 -74 -3 0
169 108 -137 0
133 -17 -163 0
90 63 -173 0
92 -74 -37 0
50 167 -7 0
171 139 -145 0
137 30 -39 0
106 36 188 0
128 -30 -16 0
14 -198 -165 0
17 -8 -125 0
113 36 -183 0
139 -48 -13 0
18 87 -30 0
138 -67 -189 0
102 -120 -37 0
25 -43 -192 0
200 187 -78 0
140 176 49 0
-181 -150 -55 0
122 -86 -12 0
33 64 149 0
4 -140 -17 0
32 -199 -48 0
173 190 -86 0
198 44 75 0
65 122 -82 0
151 128 -166 0
26 -119 -165 0
70 157 -129 0
169 159 -185 0
161 66 -140 0
27 79 -159 0
-10 -187 -119 0
82 96 -165 0
46 -120 -70 0
175 -123 -172 0
173 1 -120 0
148 106 34 0
174 -169 -28 0
124 -171 -170 0
130 189 -39 0
166 -123 -49 0
87 -76 -86 0
54 -156 -58 0
184 132 -180 0
103 92 17 0
-150 -8 -119 0
-2 -13 -14 0
102 115 -124 0
142 -110 -106 0
84 72 -26 0
21 -8 -145 0
38 -176 -152 0
162 -66 -89 0
113 -151 -69 0
107 -105 -28 0
22 33 105 0
94 71 -160 0
148 75 -49 0
141 113 -39 0
137 135 -41 0
126 164 -145 0
158 100 116 0
167 34 -44 0
6 117 -64 0
58 22 30 0
-50 -24 -100 0
151 -137 -70 0
23 13 -152 0
65 22 -26 0
157 23 -120 0
21 197 -8 0
200 83 -110 0
70 116 -61 0
82 -143 -5 0
-176 -198 -30 0
162 -92 -72 0
12 -174 -86 0
189 -122 -79 0
36 68 -12 0
60 -60 -81 0
106 121 -80 0
-15 -156 -122 0
153 -45 -175 0
71 -39 -153 0
181 188 -6 0
100 51 -90 0
91 -91 -158 0
189 138 -110 0
190 44 196 0
-95 -70 -82 0
162 109 -172 0
4 93 -29 0
147 -161 -86 0
192 -40 -55 0
106 -3 -149 0
39 -19 -127 0
31 77 1 0
177 -31 -188 0
-90 -159 -151 0
10 133 -12 0
102 135 -93 0
129 -41 -67 0
177 -112 -96 0
29 -149 -178 0
42 2 84 0
176 70 3 0
96 84 -111 0
55 -14 -111 0
-97 -159 -77 0
178 184 -36 0
44 -25 -89 0
27 -140 -53 0
33 167 -121 0
148 23 8 0
142 -9 -55 0
133 1 97 0
150 199 -147 0
63 -150 -26 0
-93 -59 -55 0
162 -154 -112 0
40 113 49 0
85 183 -51 0
62 112 -98 0
128 -39 -168 0
195 28 -13 0
190 116 -89 0
130 25 131 0
76 56 -42 0
119 6 -99 0
194 189 66 0
71 186 -76 0
177 -23 -117 0
145 179 -32 0
117 -62 -71 0
155 -104 -69 0
140 8 30 0
-9 -114 -88 0
-93 -38 -191 0
33 -78 -142 0
42 -123 -170 0
-151 -57 -176 0
23 178 -58 0
71 39 -135 0
194 40 -58 0
109 -79 -191 0
49 -72 -158 0
138 -169 -98 0
23 50 -146 0
95 181 -141 0
98 -164 -177 0
127 105 -63 0
50 117 -140 0
149 87 -58 0
-188 -66 -59 0
155 -198 -143 0
168 -43 -194 0
142 150 -19 0
138 86 -15 0
179 131 -71 0
94 141 -62 0
164 14 -99 0
181 144 -176 0
-19 -124 -152 0
141 -107 -29 0
-114 -88 -165 0
79 -112 -48 0
137 7 -130 0
69 168 27 0
192 197 -121 0
108 76 -158 0
-15 -144 -8 0
139 -81 -8 0
-119 -86 -20 0
41 173 -66 0
65 52 -100 0
158 -44 -161 0
33 -73 -11 0
132 67 136 0
34 120 -53 0
114 -170 -165 0
8 183 -111 0
198 -152 -21 0
-40 -49 -77 0
127 58 49 0
173 58 -197 0
121 -176 -1 0
84 150 -59 0
128 133 -74 0
157 -88 -32 0
143 196 80 0
39 134 10 0
27 -157 -155 0
-75 -15 -150 0
87 182 -41 0
-171 -199 -55 0
-23 -79 -176 0
102 18 121 0
184 -63 -200 0
177 -125 -16 0
-88 -9 -172 0
6 -83 -159 0
128 198 -104 0
31 -127 -154 0
-102 -135 -91 0
88 43 -43 0
129 153 -47 0
194 27 -132 0
194 -97 -170 0
197 -121 -180 0
69 146 119 0
32 65 111 0
-22 -13 -14 0
175 -127 -157 0
-85 -177 -190 0
86 -64 -165 0
50 12 94 0
-67 -198 -134 0
77 -174 -26 0
-99 -120 -137 0
38 -145 -88 0
184 198 92 0
95 74 -197 0
54 -185 -3 0
99 -141 -117 0
37 64 -111 0
10 47 -196 0
45 -151 -127 0
195 82 56 0
103 11 -68 0
-9 -114 -163 0
63 22 -20 0
9 106 148 0
100 -66 -131 0
64 -44 -194 0
11 -124 -87 0
25 120 -185 0
11 78 -88 0
37 -170 -60 0
88 -73 -110 0
63 -177 -39 0
139 192 -3 0
3 -193 -101 0
-47 -178 -196 0
139 -11 -44 0
9 -50 -115 0
-168 -178 -195 0
159 122 28 0
57 27 -5 0
71 137 187 0
136 125 65 0
128 72 49 0
6 -31 -158 0
123 122 73 0
186 118 -17 0
-115 -13 -187 0
17 -152 -74 0
108 31 91 0
30 40 -135 0
33 -160 -161 0
60 65 -81 0
82 183 17 0
7 -78 -180 0
149 -189 -117 0
33 102 -161 0
180 7 -103 0
6 77 -149 0
158 -57 -114 0
-146 -103 -137 0
-150 -177 -142 0
61 192 -147 0
24 -108 -62 0
-88 -187 -139 0
169 85 -74 0
60 -160 -9 0
197 -196 -28 0
179 86 -81 0
156 63 199 0
122 71 -12 0
10 15 94 0
73 -100 -163 0
96 -37 -159 0
181 -103 -159 0
84 73 -187 0
123 195 -21 0
126 82 100 0
18 23 -68 0
187 196 -66 0
87 -88 -99 0
2 3 -78 0
-39 -178 -193 0
21 -3 -171 0
65 -90 -104 0
176 -196 -135 0
110 -120 -94 0
44 -41 -77 0
44 77 99 0
37 61 184 0
-71 -129 -150 0
191 187 15 0
197 41 81 0
199 180 -162 0
121 186 74 0
56 188 -174 0
80 -147 -80 0
9 199 -152 0
49 -96 -175 0
69 38 -183 0
190 28 -151 0
56 146 -93 0
58 146 -158 0
192 141 -161 0
8 -190 -141 0
29 -54 -75 0
-28 -15 -108 0
116 45 -178 0
72 -129 -95 0
22 -104 -59 0
9 77 -93 0
149 -5 -64 0
147 130 -81 0
26 158 -196 0
150 105 -1 0
18 171 58 0
-196 -11 -70 0
34 -108 -169 0
60 -66 -19 0
122 -41 -129 0
94 -176 -122 0
6 -67 -182 0
44 125 -170 0
12 -53 -124 0
79 100 -101 0
4 -71 -92 0
145 168 -70 0
149 102 -26 0
155 -130 -65 0
140 27 -117 0
25 132 -75 0
97 92 -89 0
116 141 -44 0
104 -173 -78 0
50 160 192 0
88 119 91 0
-108 -178 -15 0
9 112 -180 0
27 39 172 0
156 22 -115 0
8 20 -46 0
186 -152 -149 0
-140 -170 -40 0
11 194 -63 0
-31 -99 -169 0
25 76 -73 0
57 -83 -123 0
-133 -57 -128 0
67 -55 -134 0
105 -139 -44 0
31 -137 -125 0
147 -76 -51 0
4 34 -180 0
54 -175 -31 0
177 -51 -27 0
186 29 149 0
159 -144 -183 0
116 27 -141 0
33 -129 -160 0
148 -68 -120 0
188 55 69 0
189 38 -9 0
-80 -22 -39 0
200 22 -194 0
141 -103 -187 0
-134 -96 -81 0
199 -126 -119 0
191 160 -87 0
-174 -157 -36 0
104 -164 -120 0
163 -57 -78 0
148 53 47 0
87 116 -64 0
90 142 -155 0
192 27 -80 0
93 -50 -17 0
23 -89 -125 0
167 102 -162 0
121 -90 -184 0
166 197 -48 0
71 121 -67 0
149 -105 -14 0
-144 -23 -18 0
61 95 -25 0
84 36 -26 0
-97 -119 -163 0
153 -115 -68 0
195 -159 -68 0
148 -10 -51 0
69 -176 -131 0
