p cnf 200 962
65 18 -108 0
138 -147 -183 0
19 119 -179 0
31 -18 -54 0
66 -101 -72 0
45 180 -95 0
17 103 -160 0
49 -133 -113 0
-186 -33 -93 0
99 24 164 0
200 67 -150 0
53 -130 -38 0
52 53 -110 0
84 120 141 0
163 16 -61 0
33 179 -173 0
-66 -18 -131 0
120 139 -33 0
107 102 -163 0
36 145 -41 0
55 45 -65 0
156 -73 -101 0
31 53 95 0
177 -171 -154 0
56 -166 -112 0
133 48 -137 0
58 -17 -84 0
129 -163 -193 0
-181 -77 -46 0
124 148 -52 0
22 -9 -64 0
11 159 -105 0
56 107 -84 0
4 136 -34 0
103 3 -32 0
115 -173 -55 0
188 -181 -182 0
184 145 -113 0
197 -117 -88 0
62 83 -143 0
195 -95 -99 0
24 66 -38 0
96 -5 -187 0
200 -75 -86 0
113 177 -46 0
55 -95 -147 0
78 74 -28 0
25 -15 -92 0
32 76 -114 0
121 24 -27 0
-184 -8 -134 0
36 10 -51 0
187 -186 -102 0
110 199 -150 0
58 -135 -137 0
-1 -135 -63 0
6 192 183 0
69 180 -51 0
177 -11 -3 0
21 155 182 0
73 90 142 0
161 -114 -48 0
176 -9 -166 0
126 -12 -131 0
81 102 -126 0
125 135 -144 0
30 14 62 0
191 120 -77 0
85 194 -149 0
-56 -146 -117 0
-59 -146 -34 0
84 -37 -89 0
77 132 -7 0
-133 -122 -145 0
27 -5 -66 0
132 -68 -65 0
40 49 28 0
45 -60 -165 0
67 -3 -184 0
-133 -61 -147 0
56 26 -84 0
169 -3 -136 0
77 158 -124 0
149 -119 -66 0
122 75 9 0
121 123 -68 0
186 42 -92 0
126 -186 -56 0
111 31 -30 0
169 171 -51 0
97 -49 -106 0
26 -38 -63 0
196 44 -184 0
159 62 -85 0
18 -152 -20 0
165 -94 -15 0
187 36 -9 0
9 191 -145 0
159 90 -154 0
93 123 -164 0
180 -189 -74 0
84 10 140 0
28 177 -100 0
-105 -167 -53 0
-26 -36 -71 0
157 122 -47 0
-70 -2 -172 0
70 67 -101 0
75 67 71 0
-118 -61 -4 0
102 -117 -79 0
188 183 114 0
145 152 97 0
10 23 105 0
197 152 -134 0
162 9 -190 0
99 113 -30 0
-62 -164 -53 0
100 125 -104 0
184 -172 -78 0
87 -147 -34 0
30 -33 -114 0
137 -126 -190 0
75 22 25 0
104 85 110 0
105 -134 -37 0
137 -1 -63 0
-181 -185 -168 0
22 5 -21 0
36 -48 -192 0
77 -13 -59 0
152 22 113 0
82 -161 -43 0
103 -113 -187 0
142 117 -33 0
29 175 -151 0
4 28 -117 0
28 119 -15 0
83 -138 -143 0
189 32 -10 0
134 -15 -177 0
91 23 -72 0
-165 -182 -186 0
47 145 136 0
93 47 -106 0
180 130 -175 0
22 49 -61 0
48 99 -156 0
102 33 198 0
38 -143 -113 0
57 -75 -33 0
95 29 -79 0
116 188 80 0
65 115 -24 0
191 -2 -162 0
90 -104 -20 0
84 9 -190 0
146 131 -21 0
147 172 -29 0
146 147 2 0
75 -190 -111 0
104 -141 -197 0
172 -28 -39 0
136 -144 -81 0
114 194 122 0
-141 -15 -91 0
142 -123 -91 0
71 88 -40 0
23 189 165 0
134 34 -79 0
184 -156 -64 0
-151 -156 -101 0
-132 -157 -192 0
153 104 -60 0
127 -134 -188 0
130 116 -34 0
85 -182 -8 0
82 118 -155 0
176 129 -32 0
94 146 -30 0
68 125 -63 0
-23 -34 -179 0
38 -10 -76 0
192 -131 -70 0
59 78 -172 0
-35 -58 -142 0
19 189 99 0
96 -144 -45 0
-12 -171 -115 0
120 85 -75 0
58 8 -25 0
105 -68 -25 0
195 111 67 0
26 -119 -137 0
52 -15 -191 0
29 -7 -117 0
163 67 -57 0
30 152 -65 0
91 -129 -54 0
57 -144 -17 0
158 -37 -187 0
52 64 -99 0
7 62 -33 0
191 -147 -50 0
10 157 -12 0
-6 -105 -89 0
147 -113 -13 0
56 122 -157 0
154 71 -97 0
31 156 -178 0
62 -21 -77 0
28 71 -29 0
59 -62 -161 0
17 177 30 0
172 -111 -77 0
-142 -107 -4 0
86 -130 -60 0
18 6 42 0
152 16 -59 0
163 7 35 0
43 -40 -6 0
121 -150 -180 0
25 35 56 0
92 127 -89 0
127 -96 -166 0
118 -77 -83 0
191 -106 -110 0
-102 -144 -6 0
193 -49 -23 0
196 -83 -1 0
77 187 -144 0
88 7 -115 0
-115 -187 -134 0
16 127 198 0
96 110 155 0
109 95 113 0
84 39 -92 0
177 -17 -185 0
150 -104 -56 0
82 -85 -46 0
-141 -172 -148 0
131 165 -124 0
182 -91 -103 0
90 -97 -57 0
17 157 -194 0
72 -151 -118 0
-163 -192 -117 0
15 -68 -64 0
44 110 -112 0
110 42 -171 0
4 -71 -53 0
136 -159 -102 0
102 -40 -175 0
75 147 -176 0
60 -172 -164 0
129 -186 -39 0
140 81 -33 0
-114 -98 -32 0
74 -5 -20 0
83 105 92 0
26 127 -185 0
76 57 -41 0
15 46 -43 0
159 53 -47 0
100 -167 -113 0
152 6 -108 0
32 -149 -61 0
24 -33 -63 0
48 -106 -48 0
116 67 -80 0
9 86 -187 0
189 -158 -79 0
-44 -72 -39 0
150 54 127 0
143 103 -126 0
162 161 -92 0
32 -66 -178 0
14 80 -80 0
68 193 -138 0
100 26 121 0
187 -185 -43 0
173 -145 -149 0
59 -192 -122 0
14 -57 -86 0
14 -130 -179 0
71 -23 -124 0
127 52 69 0
154 132 -196 0
53 -106 -22 0
79 162 -135 0
144 94 146 0
186 -76 -125 0
81 65 -149 0
18 189 -128 0
84 -19 -108 0
118 71 -104 0
133 138 -81 0
131 -7 -83 0
-81 -30 -70 0
-89 -134 -70 0
2 46 36 0
58 84 -146 0
170 -6 -160 0
105 6 63 0
8 -60 -108 0
153 -158 -45 0
60 -116 -173 0
53 112 -78 0
-89 -61 -160 0
-177 -55 -118 0
120 112 -33 0
113 114 -65 0
63 99 38 0
43 -183 -127 0
77 58 185 0
-51 -156 -192 0
96 -156 -139 0
189 14 -175 0
39 200 173 0
141 -78 -157 0
105 81 -43 0
90 50 -97 0
-55 -171 -105 0
181 -177 -130 0
26 -131 -71 0
31 -118 -24 0
191 -157 -87 0
143 137 -56 0
96 185 -143 0
133 -34 -36 0
62 169 -112 0
123 174 130 0
52 -195 -169 0
194 -20 -181 0
95 -24 -64 0
-149 -31 -109 0
182 52 -96 0
61 -135 -74 0
75 -104 -163 0
55 -72 -172 0
54 -143 -61 0
-109 -5 -198 0
-12 -38 -61 0
-50 -88 -144 0
-126 -175 -143 0
161 184 -23 0
131 160 99 0
30 -81 -114 0
42 144 -179 0
-38 -185 -74 0
-161 -49 -121 0
154 138 180 0
129 136 -26 0
-156 -178 -195 0
60 42 -51 0
150 -56 -32 0
49 59 -101 0
167 50 -73 0
27 187 -156 0
159 152 -156 0
165 -33 -68 0
114 -60 -58 0
-79 -139 -32 0
157 29 -7 0
107 148 -160 0
115 -124 -195 0
137 187 -154 0
200 125 -195 0
121 -168 -94 0
159 -32 -38 0
70 -145 -190 0
155 -66 -51 0
18 -20 -72 0
21 -21 -38 0
127 -45 -193 0
34 -25 -45 0
22 121 -1 0
159 39 159 0
194 62 -11 0
146 154 -143 0
65 -194 -178 0
30 -5 -34 0
2 46 -5 0
192 12 -68 0
14 142 -142 0
104 2 -36 0
-126 -189 -139 0
108 149 145 0
39 -140 -190 0
85 175 -156 0
61 -66 -36 0
-48 -33 -177 0
110 183 -110 0
7 -80 -178 0
-31 -119 -181 0
139 159 -70 0
126 -58 -60 0
153 160 -116 0
113 142 55 0
115 -51 -166 0
-8 -67 -166 0
-89 -15 -98 0
16 75 -172 0
-11 -32 -194 0
161 -41 -146 0
153 -22 -44 0
84 151 -28 0
86 -187 -15 0
197 -195 -172 0
-142 -181 -95 0
134 16 78 0
114 -99 -117 0
122 44 131 0
18 -168 -156 0
191 -79 -165 0
121 -36 -53 0
28 142 -13 0
24 59 -44 0
199 164 -38 0
182 -161 -97 0
12 49 -1 0
51 -53 -112 0
166 105 -74 0
85 -103 -21 0
122 -130 -85 0
118 -30 -164 0
158 116 21 0
-46 -18 -5 0
22 42 43 0
120 48 -17 0
108 94 153 0
128 -178 -69 0
133 37 -15 0
197 -187 -98 0
187 -74 -137 0
-33 -87 -28 0
32 39 -50 0
97 83 199 0
83 -20 -98 0
116 -44 -168 0
32 156 32 0
109 24 -50 0
64 170 63 0
22 -30 -37 0
76 195 118 0
124 -94 -87 0
70 -8 -111 0
-58 -56 -190 0
41 -188 -80 0
156 -141 -98 0
105 35 -97 0
-96 -158 -90 0
-150 -47 -62 0
147 -24 -23 0
159 156 80 0
115 129 -188 0
181 86 -71 0
197 -173 -96 0
75 144 -114 0
23 81 -14 0
130 108 -190 0
169 180 -77 0
34 160 -92 0
75 96 134 0
198 18 -102 0
191 -28 -75 0
66 158 -151 0
82 -176 -170 0
150 62 -134 0
59 43 -58 0
-159 -154 -25 0
191 -34 -65 0
99 -47 -193 0
28 82 -74 0
19 -45 -110 0
112 61 -193 0
140 161 -118 0
176 -29 -128 0
105 -151 -62 0
-118 -17 -34 0
125 -16 -77 0
64 122 154 0
100 67 -55 0
27 115 51 0
-107 -67 -18 0
-128 -153 -37 0
88 110 -65 0
34 153 -130 0
93 -50 -188 0
165 93 176 0
86 113 139 0
-118 -133 -3 0
14 148 -51 0
57 166 -101 0
20 128 -27 0
80 -80 -152 0
69 67 20 0
177 -81 -97 0
169 -188 -83 0
-137 -177 -91 0
125 -14 -19 0
106 81 -66 0
-69 -136 -35 0
91 155 11 0
42 166 85 0
45 102 121 0
153 -199 -35 0
78 -8 -21 0
152 159 -79 0
-165 -174 -88 0
-105 -183 -112 0
51 -96 -184 0
-4 -178 -75 0
-187 -12 -7 0
85 -1 -145 0
87 -62 -76 0
14 130 -112 0
31 104 55 0
165 162 -7 0
36 176 -72 0
23 169 -102 0
166 164 -175 0
113 -124 -46 0
98 178 27 0
82 -185 -54 0
102 -44 -54 0
106 -21 -153 0
132 6 -128 0
146 35 194 0
84 181 -56 0
-63 -93 -31 0
86 128 -17 0
59 140 -128 0
158 149 -55 0
105 80 -90 0
189 -62 -62 0
16 190 160 0
23 -75 -162 0
3 -27 -179 0
13 20 -180 0
90 -106 -89 0
-8 -39 -161 0
114 125 113 0
159 70 -14 0
180 55 -102 0
103 85 156 0
104 174 -195 0
159 3 132 0
3 -85 -91 0
103 176 -185 0
-85 -80 -190 0
-56 -90 -37 0
50 140 -60 0
158 196 -25 0
172 -124 -130 0
200 182 37 0
67 174 69 0
-66 -107 -103 0
3 145 -144 0
63 -148 -125 0
161 183 -144 0
132 -147 -193 0
45 -116 -20 0
100 142 -68 0
102 -144 -104 0
171 41 -111 0
183 188 -144 0
140 56 52 0
83 13 -26 0
162 148 34 0
43 -21 -133 0
34 -76 -101 0
-30 -9 -7 0
157 -157 -5 0
137 -50 -161 0
168 63 -147 0
135 28 -46 0
5 143 92 0
132 104 -171 0
175 58 112 0
175 -144 -95 0
16 198 -81 0
189 124 121 0
50 -26 -128 0
31 -193 -162 0
73 72 -106 0
119 153 -123 0
197 -178 -97 0
124 60 29 0
76 192 -190 0
188 -177 -17 0
163 -198 -53 0
109 -171 -54 0
147 12 -141 0
-54 -76 -197 0
-5 -36 -124 0
16 41 -129 0
88 116 -197 0
110 193 184 0
151 -149 -16 0
38 103 89 0
-163 -68 -45 0
145 183 171 0
81 -43 -112 0
157 76 -97 0
169 -105 -49 0
61 63 -49 0
157 -195 -16 0
34 -29 -104 0
67 -34 -82 0
120 -31 -110 0
80 -108 -62 0
127 -196 -115 0
144 26 -197 0
61 -149 -132 0
141 -169 -141 0
186 200 -63 0
66 -12 -53 0
-177 -57 -101 0
79 -137 -65 0
111 116 -48 0
182 -26 -100 0
39 -21 -177 0
-3 -133 -194 0
-83 -174 -75 0
3 -42 -98 0
62 85 -77 0
10 36 -128 0
170 -165 -156 0
161 -39 -50 0
43 -98 -162 0
178 24 99 0
128 138 10 0
90 54 -170 0
133 -133 -151 0
52 2 -180 0
-45 -40 -80 0
139 -104 -144 0
173 108 69 0
66 -161 -92 0
10 -150 -125 0
110 58 -184 0
172 -18 -119 0
34 148 -19 0
163 143 -91 0
100 76 55 0
199 -35 -155 0
59 176 -168 0
184 113 170 0
61 -146 -97 0
172 169 -72 0
35 69 16 0
76 94 199 0
22 83 -176 0
41 154 136 0
110 -105 -177 0
14 -165 -134 0
98 119 -23 0
158 -34 -119 0
148 -165 -57 0
4 89 -8 0
145 -172 -141 0
75 -78 -56 0
186 -58 -170 0
189 142 189 0
11 -111 -139 0
132 -93 -101 0
197 4 84 0
182 -2 -57 0
22 39 1 0
73 -60 -61 0
-191 -101 -25 0
7 87 -141 0
60 6 59 0
106 14 69 0
148 -21 -193 0
190 -37 -48 0
109 -33 -148 0
188 184 109 0
81 198 132 0
184 6 -86 0
29 -164 -15 0
119 -177 -162 0
180 2 -70 0
96 -106 -8 0
31 -128 -140 0
159 115 -70 0
197 -191 -92 0
131 78 -158 0
127 -56 -51 0
51 153 152 0
131 -40 -49 0
195 127 78 0
153 189 -131 0
54 196 -24 0
109 174 153 0
82 30 -57 0
178 181 169 0
38 86 -151 0
184 127 -26 0
96 -84 -94 0
164 -25 -18 0
71 199 -188 0
100 151 -21 0
189 -124 -110 0
62 61 -90 0
195 22 39 0
85 26 180 0
101 192 -190 0
138 -117 -132 0
-89 -76 -51 0
196 -8 -12 0
123 -57 -74 0
198 173 -138 0
99 142 91 0
163 113 -135 0
41 -40 -49 0
-79 -37 -194 0
157 102 148 0
66 -123 -78 0
160 -192 -148 0
198 105 -188 0
130 56 -54 0
11 129 -182 0
92 -59 -174 0
-30 -5 -57 0
19 52 -76 0
140 -116 -161 0
54 95 -145 0
120 94 -130 0
138 -83 -30 0
62 188 -76 0
189 -108 -116 0
175 -167 -196 0
197 -102 -144 0
56 61 -69 0
182 160 -92 0
72 -137 -196 0
27 84 -100 0
147 153 -193 0
151 -20 -59 0
71 132 -164 0
90 136 53 0
184 48 -53 0
25 144 32 0
174 99 -167 0
188 -57 -97 0
93 46 -67 0
12 -193 -55 0
52 -80 -71 0
82 -166 -100 0
47 -113 -165 0
158 104 -102 0
48 88 53 0
26 5 -19 0
127 113 -51 0
44 57 -14 0
132 189 -156 0
148 -156 -60 0
194 -111 -78 0
106 195 -172 0
21 173 136 0
-73 -169 -115 0
66 126 -137 0
74 -176 -26 0
32 122 -106 0
149 -77 -197 0
135 6 -132 0
136 42 -157 0
141 64 149 0
37 42 -106 0
38 55 -144 0
86 -63 -76 0
47 152 25 0
102 136 -63 0
145 154 140 0
59 63 -119 0
163 -85 -157 0
109 30 -92 0
58 -71 -29 0
62 126 -156 0
40 -47 -123 0
-89 -111 -52 0
62 125 -111 0
192 22 -112 0
180 -92 -127 0
191 161 178 0
95 -116 -2 0
99 174 110 0
88 112 -150 0
-78 -55 -160 0
197 -79 -187 0
183 129 -59 0
67 103 -126 0
37 140 -58 0
128 -46 -126 0
114 71 -51 0
86 -115 -80 0
98 162 -183 0
71 -195 -1 0
30 -102 -145 0
14 94 197 0
139 11 -190 0
138 -159 -112 0
-197 -11 -157 0
2 -198 -84 0
185 -175 -98 0
162 -88 -76 0
80 -62 -155 0
20 9 -4 0
-132 -8 -33 0
28 -164 -47 0
73 115 -34 0
42 12 -112 0
27 173 -22 0
155 70 -37 0
34 1 -70 0
192 -190 -72 0
126 4 -79 0
156 -48 -87 0
64 108 -38 0
40 -93 -90 0
186 -112 -111 0
4 151 -39 0
-72 -115 -89 0
132 152 111 0
152 41 80 0
85 37 26 0
44 -87 -134 0
-72 -29 -135 0
171 37 -25 0
6 148 137 0
189 174 -181 0
35 25 -71 0
83 -65 -156 0
163 80 22 0
54 -39 -86 0
154 19 -68 0
50 -185 -108 0
181 82 -64 0
137 140 153 0
85 125 55 0
107 97 -191 0
33 17 -17 0
88 42 51 0
165 29 -143 0
131 47 -157 0
145 104 -166 0
77 127 -169 0
-78 -167 -37 0
183 89 -142 0
62 169 -156 0
13 186 86 0
-166 -50 -23 0
-158 -179 -166 0
80 6 -76 0
77 -4 -193 0
37 81 -175 0
-84 -89 -59 0
198 133 47 0
162 -186 -28 0
-117 -71 -61 0
74 39 -59 0
114 126 -196 0
-139 -2 -1 0
20 43 -35 0
106 175 161 0
-16 -123 -95 0
134 -21 -139 0
107 147 -15 0
191 162 -128 0
67 -72 -88 0
47 -104 -179 0
59 -2 -25 0
152 7 70 0
19 -142 -72 0
123 137 -199 0
38 133 -152 0
56 -12 -36 0
117 -200 -153 0
52 -152 -20 0
29 129 142 0
150 -127 -112 0
80 -43 -106 0
155 17 138 0
63 87 -135 0
-190 -24 -8 0
172 -143 -13 0
153 184 -9 0
-65 -55 -69 0
105 -81 -141 0
158 -23 -1 0
116 77 -86 0
174 150 63 0
9 79 -119 0
199 195 -102 0
52 -73 -80 0
109 -152 -187 0
19 103 157 0
14 -164 -87 0
195 173 -109 0
188 9 -166 0
37 83 -8 0
89 78 -186 0
93 -157 -101 0
-164 -195 -181 0
153 178 -128 0
-157 -50 -94 0
194 132 6 0
34 133 -24 0
-12 -82 -175 0
36 -13 -147 0
93 -151 -51 0
70 -84 -82 0
115 -69 -154 0
13 -109 -99 0
179 82 -77 0
1 28 -147 0
189 69 -93 0
70 -192 -40 0
185 -185 -159 0
118 -141 -114 0
150 99 62 0
-72 -15 -97 0
177 -104 -79 0
70 -43 -191 0
189 63 -96 0
67 -151 -147 0
-176 -69 -163 0
148 94 147 0
121 117 111 0
157 4 -173 0
79 -177 -135 0
-60 -119 -157 0
87 -198 -190 0
73 18 -151 0
144 196 -74 0
49 -57 -1 0
130 -158 -42 0
30 14 78 0
171 -85 -53 0
51 142 -49 0
155 71 64 0
194 -51 -198 0
111 14 47 0
158 -48 -46 0
189 182 -94 0
127 148 -22 0
4 -94 -129 0
87 155 -85 0
184 -135 -28 0
43 -21 -100 0
31 188 134 0
-12 -190 -147 0
52 -1 -123 0
99 89 -2 0
30 -135 -45 0
69 196 -143 0
-10 -11 -190 0
-171 -44 -91 0
3 52 180 0
-153 -5 -194 0
