p cnf 200 884
-185 -184 -117 0
-140 -93 -83 0
-27 -2 -145 0
174 90 -73 0
113 -7 -26 0
60 -50 -22 0
15 58 -25 0
54 -48 -178 0
188 -62 -156 0
22 175 -198 0
53 82 173 0
88 8 -142 0
31 21 -181 0
130 -63 -79 0
198 -64 -112 0
164 4 -115 0
194 10 -138 0
76 68 -119 0
167 64 -29 0
112 -181 -149 0
90 -80 -187 0
86 67 -24 0
188 -88 -112 0
51 106 34 0
-176 -79 -122 0
166 -102 -183 0
164 -30 -17 0
49 -75 -172 0
-158 -74 -156 0
11 -8 -128 0
175 189 -81 0
163 109 -140 0
31 -199 -112 0
32 74 170 0
138 135 -50 0
45 101 118 0
180 33 111 0
1 87 -105 0
50 -154 -129 0
-127 -35 -174 0
16 101 120 0
91 142 -26 0
160 126 -77 0
109 64 -37 0
-3 -113 -57 0
28 -4 -158 0
68 60 86 0
135 -171 -101 0
49 63 114 0
56 138 -29 0
-95 -3 -92 0
20 -3 -158 0
174 82 -133 0
18 122 -88 0
128 -95 -110 0
9 128 -86 0
2 173 -103 0
46 -88 -187 0
49 -77 -85 0
43 -9 -39 0
71 4 -53 0
-16 -194 -168 0
37 136 -166 0
178 -172 -3 0
178 -57 -150 0
34 134 -134 0
126 20 -3 0
13 -191 -82 0
-70 -74 -175 0
155 94 -97 0
100 79 -171 0
29 113 135 0
180 -95 -39 0
59 117 72 0
20 189 -14 0
154 10 -112 0
-58 -114 -164 0
-131 -21 -13 0
136 -176 -81 0
77 -10 -62 0
182 44 54 0
94 -191 -88 0
67 -100 -134 0
121 124 -153 0
37 186 30 0
42 39 17 0
99 109 -128 0
150 107 30 0
43 65 83 0
149 66 -84 0
177 -120 -36 0
128 -32 -124 0
10 -71 -64 0
48 -45 -107 0
-47 -152 -8 0
179 152 18 0
112 127 -14 0
10 -109 -91 0
12 99 131 0
200 61 -19 0
138 80 -90 0
5 195 -12 0
121 186 -7 0
27 151 -51 0
120 -46 -174 0
-105 -16 -151 0
13 -175 -171 0
159 -161 -172 0
43 -39 -195 0
106 49 -95 0
128 186 47 0
198 -162 -193 0
60 73 11 0
-9 -170 -19 0
-61 -63 -4 0
6 -175 -9 0
43 141 -167 0
177 81 -164 0
36 -123 -143 0
159 91 -104 0
3 -8 -161 0
54 28 -186 0
163 -188 -179 0
106 40 -112 0
36 -165 -147 0
-174 -134 -28 0
67 92 -67 0
26 190 -142 0
11 -46 -191 0
188 -126 -177 0
88 40 -64 0
15 103 -65 0
154 -50 -45 0
90 162 -7 0
58 130 -83 0
9 -47 -24 0
85 44 -76 0
118 89 -27 0
160 153 52 0
27 111 -5 0
121 -171 -71 0
46 156 -95 0
75 156 -190 0
163 44 -97 0
166 113 -106 0
15 4 -73 0
83 34 -83 0
16 44 -136 0
19 70 98 0
12 -44 -139 0
190 42 -8 0
19 -172 -32 0
120 -120 -61 0
-48 -155 -160 0
148 111 -28 0
133 23 75 0
45 -50 -95 0
84 -146 -148 0
5 -97 -77 0
98 -162 -65 0
125 -182 -184 0
-103 -196 -110 0
13 -157 -151 0
-117 -141 -49 0
65 139 -105 0
67 -184 -24 0
-181 -138 -113 0
119 -38 -156 0
2 -28 -7 0
149 -136 -8 0
135 112 -123 0
189 57 -85 0
159 -72 -93 0
-151 -94 -192 0
104 160 -89 0
181 140 -3 0
-198 -151 -45 0
148 -104 -20 0
69 190 114 0
158 -93 -192 0
68 -34 -146 0
17 -96 -73 0
-59 -21 -120 0
117 -6 -178 0
137 96 103 0
114 85 -107 0
166 -93 -65 0
191 -73 -131 0
130 128 -13 0
-147 -189 -177 0
46 -160 -129 0
180 102 -14 0
20 -182 -7 0
119 139 5 0
44 88 -52 0
44 37 -153 0
151 158 -55 0
91 61 -164 0
-7 -197 -9 0
127 77 -100 0
104 -29 -68 0
126 -145 -78 0
5 86 -48 0
-56 -167 -170 0
168 192 -162 0
52 -200 -147 0
72 -103 -157 0
24 -73 -78 0
77 144 -108 0
52 -49 -32 0
107 193 -148 0
135 -126 -150 0
172 66 -143 0
138 36 -15 0
60 -79 -83 0
131 -41 -49 0
103 -114 -67 0
168 92 -92 0
197 179 -196 0
71 158 177 0
81 64 83 0
95 -47 -163 0
105 136 12 0
121 151 -121 0
-60 -38 -29 0
110 171 -26 0
67 178 6 0
123 -139 -40 0
-40 -103 -51 0
170 109 11 0
-196 -141 -58 0
12 -38 -178 0
197 -62 -46 0
151 154 -198 0
40 79 191 0
28 -61 -113 0
182 154 -139 0
83 -13 -35 0
70 48 -191 0
9 -56 -90 0
104 -196 -181 0
184 179 -36 0
130 171 145 0
186 -144 -134 0
9 -27 -151 0
136 173 -133 0
-176 -83 -169 0
21 -166 -78 0
155 -116 -94 0
74 114 -196 0
-176 -150 -124 0
46 41 -152 0
44 68 -59 0
-60 -160 -142 0
72 106 -62 0
25 101 164 0
145 79 -80 0
118 -11 -169 0
-181 -23 -178 0
-115 -160 -142 0
106 -66 -178 0
67 -5 -180 0
-161 -126 -72 0
82 -92 -40 0
20 129 -6 0
145 85 -29 0
144 56 -111 0
72 172 96 0
9 94 -51 0
8 -87 -184 0
105 -18 -110 0
47 35 -58 0
116 122 114 0
111 155 -92 0
179 -97 -20 0
134 -103 -32 0
67 14 -83 0
-31 -87 -91 0
31 -58 -47 0
190 -113 -92 0
13 -36 -48 0
188 -88 -82 0
9 54 156 0
180 -90 -62 0
184 145 -92 0
147 76 -3 0
126 178 49 0
-19 -69 -148 0
63 -175 -186 0
-1 -88 -52 0
-61 -81 -127 0
18 157 -86 0
154 -179 -196 0
190 -162 -185 0
172 13 -143 0
34 -67 -122 0
141 92 -111 0
68 -176 -182 0
87 20 -166 0
139 61 -75 0
48 154 -178 0
45 109 73 0
53 17 -181 0
149 -81 -112 0
60 144 -63 0
130 65 -130 0
191 98 92 0
74 22 -157 0
80 -3 -183 0
139 -196 -197 0
-105 -6 -132 0
150 20 -125 0
84 -158 -11 0
-194 -110 -153 0
-88 -158 -68 0
53 35 -85 0
29 171 -185 0
180 -84 -31 0
159 -119 -171 0
165 180 -164 0
-109 -63 -7 0
64 -36 -108 0
-192 -50 -106 0
168 74 63 0
116 17 -1 0
60 150 -62 0
90 120 -23 0
138 150 54 0
165 111 -149 0
62 -38 -156 0
2 -111 -106 0
143 92 -35 0
181 -13 -61 0
18 -4 -155 0
109 173 -105 0
29 20 109 0
-52 -118 -179 0
127 198 78 0
189 -57 -60 0
179 148 -10 0
38 6 -136 0
16 65 70 0
1 60 188 0
3 -131 -9 0
88 -80 -139 0
18 -87 -143 0
63 48 128 0
32 152 -77 0
6 170 -193 0
52 151 -197 0
137 -71 -36 0
-19 -80 -195 0
70 -47 -101 0
164 141 152 0
93 78 -118 0
162 74 166 0
22 178 -108 0
-188 -45 -142 0
82 -62 -59 0
48 50 -16 0
132 165 -108 0
-13 -48 -141 0
157 -112 -153 0
83 -192 -194 0
47 -21 -22 0
192 54 -127 0
-82 -89 -28 0
81 135 -44 0
85 66 71 0
34 8 -111 0
75 106 38 0
15 4 -73 0
175 -140 -15 0
140 -44 -74 0
68 -110 -49 0
34 -196 -144 0
-60 -38 -152 0
74 -150 -147 0
120 163 98 0
7 -111 -101 0
98 -140 -95 0
48 -197 -150 0
98 -45 -179 0
186 190 157 0
25 133 -195 0
145 -34 -194 0
28 -56 -73 0
-193 -23 -11 0
112 132 -197 0
132 62 -117 0
193 9 23 0
-73 -55 -10 0
-146 -75 -141 0
13 -116 -5 0
117 134 18 0
97 81 -173 0
34 -61 -68 0
-133 -197 -35 0
18 25 -169 0
19 113 -86 0
91 112 -112 0
-154 -63 -37 0
30 -60 -154 0
-11 -45 -194 0
178 -106 -46 0
197 62 -140 0
190 -14 -94 0
32 -26 -31 0
167 182 -95 0
120 14 -147 0
183 39 -191 0
50 98 -182 0
-67 -129 -131 0
82 1 42 0
168 -191 -21 0
53 -153 -101 0
17 191 156 0
76 97 -18 0
195 -23 -113 0
-49 -122 -55 0
181 -192 -119 0
81 71 -159 0
42 -22 -181 0
119 -177 -83 0
107 64 -51 0
30 190 -1 0
130 166 -159 0
49 8 196 0
174 31 -89 0
116 120 -46 0
76 190 -191 0
32 -54 -169 0
50 173 63 0
124 -140 -141 0
150 116 -100 0
160 -191 -78 0
108 -27 -82 0
79 25 -22 0
138 -6 -114 0
2 40 -114 0
33 60 145 0
25 139 -197 0
25 -125 -157 0
140 -163 -187 0
180 -126 -6 0
10 42 -111 0
74 185 67 0
195 151 179 0
36 135 -71 0
142 -29 -183 0
80 168 -35 0
-160 -130 -88 0
144 24 -7 0
21 167 -185 0
104 -154 -181 0
188 -174 -113 0
44 138 144 0
179 94 -82 0
100 140 101 0
2 -125 -92 0
179 153 -35 0
58 -4 -38 0
171 5 79 0
161 64 26 0
84 -87 -156 0
192 -6 -170 0
17 -153 -130 0
154 57 -27 0
135 156 -34 0
19 178 -170 0
9 66 -198 0
28 -115 -140 0
132 -36 -43 0
151 5 -3 0
-134 -65 -18 0
134 28 198 0
-141 -182 -47 0
87 109 -165 0
22 -109 -51 0
188 -79 -3 0
88 -61 -94 0
158 157 -124 0
92 -55 -194 0
146 -22 -171 0
183 72 -128 0
10 -175 -174 0
133 172 -52 0
145 -134 -100 0
52 -95 -71 0
99 121 -114 0
107 1 -43 0
34 -6 -56 0
53 187 -52 0
13 169 -90 0
12 175 -85 0
31 5 -83 0
72 100 -50 0
153 78 -98 0
82 98 -92 0
161 28 -137 0
119 -63 -131 0
-49 -84 -114 0
-10 -186 -180 0
82 25 -101 0
108 113 8 0
23 -9 -134 0
-29 -78 -89 0
51 162 42 0
154 6 -21 0
-29 -89 -78 0
194 72 -158 0
179 -115 -70 0
60 97 -153 0
192 -76 -47 0
130 -96 -24 0
179 -108 -33 0
93 -197 -1 0
61 160 -180 0
98 -72 -53 0
135 9 70 0
179 37 -27 0
85 115 -145 0
111 140 -131 0
55 -145 -36 0
178 -12 -149 0
137 117 -115 0
95 87 -96 0
122 98 -127 0
-174 -108 -64 0
-157 -26 -96 0
120 123 176 0
1 129 54 0
-159 -43 -150 0
139 176 -168 0
134 -99 -127 0
12 135 103 0
127 156 -102 0
35 -189 -37 0
118 -12 -132 0
178 -3 -171 0
152 134 -70 0
121 155 136 0
133 37 174 0
121 132 -182 0
58 -51 -57 0
143 -157 -118 0
9 -108 -71 0
132 93 -149 0
146 -70 -104 0
113 97 -57 0
167 119 133 0
146 73 -42 0
64 -87 -72 0
30 -67 -90 0
89 162 -150 0
182 117 -190 0
48 -124 -47 0
-15 -116 -144 0
113 189 -82 0
182 4 155 0
126 197 -176 0
115 139 -163 0
-125 -77 -112 0
100 -31 -139 0
147 66 -190 0
191 20 158 0
152 161 -142 0
89 146 -184 0
-14 -157 -69 0
62 88 139 0
57 180 171 0
31 150 -14 0
182 -172 -138 0
-132 -52 -78 0
180 -127 -117 0
194 -100 -141 0
-126 -27 -33 0
182 -24 -91 0
-105 -4 -143 0
30 174 -85 0
-183 -74 -133 0
100 123 126 0
95 -57 -64 0
187 -154 -11 0
179 -2 -114 0
125 162 128 0
95 143 59 0
44 84 -156 0
104 58 -131 0
191 -40 -138 0
102 161 -1 0
57 128 159 0
194 172 -141 0
76 159 -198 0
163 19 -31 0
17 104 -139 0
26 -101 -91 0
-7 -78 -50 0
51 173 106 0
105 106 -125 0
56 18 -164 0
152 116 -155 0
128 -53 -97 0
157 -187 -132 0
-106 -133 -165 0
26 -132 -46 0
8 -8 -166 0
26 -40 -67 0
184 112 -51 0
122 -5 -53 0
185 37 -58 0
191 -39 -22 0
41 194 -23 0
177 139 -52 0
155 -186 -70 0
103 33 -72 0
73 -41 -99 0
31 63 119 0
10 12 -156 0
59 33 -172 0
192 58 -131 0
73 -73 -177 0
-90 -60 -11 0
34 -169 -178 0
143 -149 -143 0
186 -152 -24 0
166 73 183 0
12 40 -39 0
80 -38 -134 0
51 -121 -69 0
152 -174 -71 0
97 132 -94 0
-44 -90 -161 0
177 86 -85 0
152 171 -31 0
7 39 -43 0
42 169 -174 0
51 81 -90 0
74 25 31 0
-75 -102 -42 0
-23 -9 -59 0
21 40 125 0
24 -170 -122 0
20 129 -171 0
-8 -167 -14 0
-88 -87 -107 0
100 -97 -32 0
184 -4 -48 0
92 -65 -175 0
157 185 -33 0
43 -133 -176 0
183 135 -101 0
94 164 -173 0
87 2 39 0
143 -185 -168 0
15 -62 -22 0
125 -161 -65 0
12 66 114 0
141 -6 -186 0
1 175 -70 0
-185 -125 -144 0
92 -84 -68 0
-159 -38 -148 0
149 162 29 0
57 117 -155 0
-70 -171 -72 0
109 -127 -155 0
119 -84 -44 0
-93 -171 -157 0
100 -155 -12 0
171 127 -151 0
167 130 -151 0
2 162 -21 0
15 164 -129 0
80 89 -158 0
145 -4 -168 0
-119 -6 -7 0
46 -83 -195 0
106 -156 -52 0
33 -98 -94 0
30 -193 -121 0
82 2 -83 0
104 97 -46 0
159 96 -152 0
195 -12 -169 0
-152 -71 -140 0
55 -91 -15 0
190 -9 -187 0
79 54 -174 0
95 30 -51 0
36 197 -65 0
147 146 -122 0
55 -18 -95 0
110 197 -41 0
58 17 135 0
64 120 -22 0
95 38 -167 0
110 37 180 0
99 110 -55 0
146 -47 -48 0
34 19 -161 0
-57 -47 -7 0
-42 -176 -192 0
187 29 165 0
118 144 -118 0
199 115 76 0
189 -103 -113 0
94 -13 -163 0
181 129 -150 0
49 -78 -18 0
185 18 -136 0
37 110 46 0
89 -123 -189 0
31 55 -39 0
-61 -55 -76 0
54 7 145 0
8 81 -136 0
8 -115 -126 0
-146 -55 -111 0
90 101 -51 0
86 -116 -125 0
11 -73 -62 0
77 99 -145 0
114 -168 -56 0
40 170 163 0
66 -81 -156 0
72 14 -133 0
6 133 -89 0
119 -45 -18 0
84 1 -40 0
160 173 -119 0
137 -56 -127 0
1 -86 -3 0
123 192 26 0
188 -20 -86 0
187 146 -98 0
89 186 -179 0
137 37 -173 0
-18 -51 -110 0
180 -103 -161 0
174 -148 -126 0
16 -78 -117 0
146 93 -69 0
142 120 -176 0
118 185 -50 0
175 18 -101 0
111 44 -140 0
4 -111 -21 0
169 104 -181 0
97 117 172 0
120 -129 -68 0
135 66 -37 0
37 41 -72 0
87 -119 -82 0
-45 -168 -169 0
181 102 101 0
16 -178 -146 0
5 -143 -163 0
177 71 -114 0
41 -62 -79 0
93 120 76 0
136 50 -123 0
151 194 -75 0
158 185 -104 0
98 49 -59 0
35 16 -45 0
56 76 8 0
154 -34 -183 0
159 -193 -23 0
29 26 62 0
-34 -168 -33 0
65 147 -71 0
60 -189 -141 0
67 159 -20 0
18 22 -192 0
188 -148 -85 0
112 26 174 0
97 66 -166 0
73 -86 -158 0
136 -179 -7 0
161 -165 -186 0
-155 -173 -130 0
189 -59 -153 0
93 -123 -27 0
113 30 -90 0
28 29 124 0
176 -119 -99 0
108 -177 -37 0
11 125 19 0
-89 -42 -95 0
123 -14 -45 0
112 -125 -160 0
10 -70 -43 0
87 -70 -87 0
97 22 -140 0
92 -149 -121 0
162 -112 -17 0
69 -9 -144 0
30 -40 -155 0
85 -61 -177 0
129 19 -167 0
75 -73 -101 0
138 -7 -183 0
22 -51 -16 0
-34 -2 -183 0
173 -120 -114 0
124 158 29 0
157 137 153 0
100 -107 -73 0
26 -108 -96 0
87 -79 -18 0
169 21 -45 0
69 1 -165 0
121 -61 -35 0
19 -68 -172 0
169 -128 -164 0
169 104 -46 0
172 -169 -159 0
105 121 -166 0
-10 -19 -50 0
130 92 57 0
49 176 -140 0
102 -148 -60 0
53 194 -20 0
162 28 -155 0
17 122 -4 0
31 149 -13 0
33 54 131 0
190 -196 -155 0
190 -3 -109 0
106 129 60 0
127 125 -127 0
69 40 161 0
71 104 -71 0
149 53 -64 0
180 -1 -140 0
176 160 -39 0
140 -24 -136 0
16 -43 -63 0
186 125 -100 0
20 -7 -102 0
89 -136 -127 0
135 7 138 0
14 -134 -68 0
96 -114 -130 0
110 -96 -72 0
195 146 163 0
128 -58 -84 0
44 -86 -163 0
69 5 -184 0
54 14 -150 0
-16 -53 -159 0
22 185 -108 0
118 -172 -1 0
102 160 -37 0
79 51 -161 0
-96 -6 -189 0
2 -91 -189 0
50 -65 -7 0
-198 -121 -192 0
156 -101 -70 0
187 -68 -36 0
78 -3 -97 0
85 111 -7 0
193 -24 -113 0
148 42 79 0
128 -191 -53 0
-10 -3 -1 0
79 33 -83 0
-155 -91 -35 0
79 22 -152 0
137 126 -178 0
78 129 -59 0
85 -53 -28 0
88 -48 -33 0
30 68 -129 0
-67 -53 -17 0
-185 -5 -86 0
11 109 -43 0
12 53 179 0
102 -9 -177 0
14 -170 -138 0
9 136 25 0
40 -41 -183 0
