p cnf 200 1000
136 76 8 0
96 -199 -189 0
116 -3 -106 0
98 30 -104 0
195 -81 -137 0
-194 -43 -112 0
89 108 -145 0
158 95 -78 0
1 -99 -75 0
174 -157 -3 0
30 144 -94 0
128 125 -164 0
23 192 -105 0
149 73 -59 0
153 -103 -39 0
19 63 -109 0
13 -133 -132 0
102 -113 -158 0
27 -186 -43 0
188 111 -148 0
175 -192 -66 0
54 108 -158 0
66 95 -55 0
26 163 -110 0
57 200 94 0
71 21 -102 0
118 142 163 0
65 -68 -12 0
-60 -79 -81 0
72 -75 -83 0
114 -33 -28 0
141 -151 -57 0
-173 -182 -82 0
42 -159 -132 0
1 -163 -1 0
100 -51 -178 0
-167 -107 -29 0
147 139 -193 0
169 -146 -42 0
6 -85 -173 0
152 -186 -7 0
153 195 -12 0
-111 -28 -17 0
142 -99 -195 0
53 -130 -29 0
83 37 -186 0
63 63 -38 0
180 -200 -9 0
121 -44 -109 0
95 -8 -77 0
-51 -184 -107 0
36 -189 -113 0
49 -169 -126 0
-194 -157 -165 0
-27 -38 -6 0
193 -158 -36 0
33 12 156 0
-80 -89 -173 0
91 93 192 0
175 -13 -4 0
31 153 -35 0
37 108 -25 0
-194 -182 -19 0
197 52 -97 0
-1 -136 -32 0
134 -182 -194 0
194 63 -187 0
136 52 -99 0
152 -11 -136 0
58 6 62 0
159 145 -115 0
28 19 -154 0
89 199 -104 0
134 178 -119 0
184 -157 -137 0
73 101 145 0
75 157 -51 0
24 -150 -73 0
21 101 -6 0
115 -53 -151 0
67 29 178 0
105 71 -157 0
134 5 -88 0
30 193 -186 0
136 196 -152 0
70 -2 -7 0
107 -107 -163 0
65 -93 -168 0
-35 -8 -112 0
137 108 -77 0
-42 -155 -129 0
7 60 -3 0
63 75 -19 0
108 -94 -26 0
72 -135 -186 0
152 4 37 0
5 95 -26 0
59 70 -9 0
69 -138 -158 0
189 11 -120 0
15 85 -64 0
2 -1 -157 0
155 -69 -191 0
59 91 86 0
153 67 60 0
171 -144 -106 0
149 -45 -5 0
171 54 -4 0
-56 -86 -189 0
93 -170 -22 0
133 -168 -129 0
157 -141 -157 0
83 92 -192 0
162 14 -24 0
8 78 -146 0
-45 -72 -19 0
-138 -194 -116 0
-11 -153 -91 0
24 51 140 0
170 198 107 0
20 66 -26 0
136 -45 -131 0
43 -174 -171 0
24 -104 -107 0
36 -18 -145 0
145 57 2 0
47 146 -51 0
34 113 -75 0
187 147 8 0
15 40 -146 0
-183 -114 -53 0
186 -7 -4 0
165 -113 -86 0
154 139 -107 0
39 160 -156 0
17 104 -25 0
190 149 -69 0
126 33 174 0
58 7 82 0
168 49 8 0
107 164 -153 0
26 190 -154 0
105 175 186 0
81 -168 -193 0
74 -164 -137 0
196 174 59 0
102 76 -190 0
72 -85 -174 0
178 -165 -64 0
-66 -32 -160 0
40 22 15 0
-13 -85 -65 0
-106 -105 -190 0
33 -155 -145 0
123 86 -29 0
-96 -147 -29 0
-134 -144 -81 0
91 163 -20 0
-52 -107 -80 0
112 44 -200 0
65 29 -126 0
47 -50 -125 0
25 24 -87 0
26 159 -170 0
9 -128 -160 0
132 68 -96 0
85 142 -80 0
147 -91 -96 0
-178 -57 -16 0
170 68 -18 0
111 26 -23 0
40 46 105 0
175 -182 -151 0
52 22 -115 0
-93 -105 -43 0
107 175 189 0
184 -42 -113 0
82 -54 -86 0
27 -163 -65 0
152 34 -106 0
170 139 187 0
-194 -182 -136 0
137 149 -4 0
82 -159 -47 0
-92 -148 -30 0
26 -194 -26 0
127 159 -140 0
187 1 -94 0
112 -119 -131 0
121 -191 -74 0
147 132 -117 0
111 140 49 0
70 -197 -13 0
178 143 138 0
3 24 -64 0
-68 -176 -21 0
153 -3 -66 0
104 15 -123 0
7 -111 -101 0
129 192 50 0
110 191 -178 0
152 -32 -132 0
64 187 -86 0
46 130 -187 0
89 -91 -176 0
-70 -96 -130 0
-38 -13 -123 0
152 -74 -55 0
77 18 91 0
29 177 -79 0
66 150 -73 0
179 -163 -35 0
145 106 -42 0
159 -156 -67 0
125 -174 -129 0
59 -84 -1 0
126 -109 -37 0
189 -98 -163 0
114 115 -94 0
3 -176 -151 0
105 -68 -135 0
69 -73 -13 0
63 -60 -107 0
173 154 -19 0
-116 -120 -129 0
-125 -40 -163 0
125 29 -11 0
-38 -80 -11 0
40 136 -119 0
34 41 -86 0
137 -174 -185 0
163 76 -44 0
-113 -150 -90 0
92 -110 -20 0
36 87 194 0
199 114 -169 0
23 151 -160 0
146 160 -127 0
162 163 -17 0
88 191 -52 0
134 -57 -47 0
92 153 -152 0
169 177 -121 0
103 -96 -54 0
188 90 -182 0
57 62 -155 0
95 -64 -69 0
131 149 53 0
126 -140 -59 0
93 8 -48 0
-1 -88 -138 0
173 85 -166 0
123 -59 -83 0
26 -121 -99 0
75 5 -23 0
139 -59 -109 0
-148 -59 -139 0
189 52 -8 0
193 -4 -172 0
187 -125 -144 0
180 85 42 0
151 175 -63 0
103 58 -145 0
129 9 -4 0
11 -138 -39 0
28 -28 -103 0
157 -38 -190 0
84 -153 -5 0
12 137 -144 0
85 144 -4 0
34 -115 -114 0
123 -26 -97 0
122 134 -5 0
-90 -138 -124 0
-106 -167 -43 0
29 76 -70 0
50 142 89 0
-99 -101 -64 0
19 -69 -65 0
64 -108 -101 0
170 -102 -48 0
140 68 -40 0
147 -158 -170 0
53 85 -61 0
161 23 -179 0
139 -196 -96 0
137 191 -197 0
187 161 -7 0
117 169 -128 0
175 79 -101 0
134 187 -194 0
1 63 -25 0
112 42 -116 0
104 124 -172 0
61 105 -190 0
60 -11 -67 0
13 69 -96 0
126 -52 -49 0
163 93 -21 0
60 -188 -59 0
142 24 -28 0
124 167 -172 0
108 50 175 0
160 53 99 0
124 77 -148 0
178 87 -75 0
-155 -152 -197 0
192 109 -5 0
150 -151 -162 0
156 117 -67 0
165 -4 -168 0
141 149 182 0
48 146 -159 0
130 7 -13 0
43 105 185 0
-122 -195 -147 0
139 -129 -44 0
147 37 -80 0
111 -52 -10 0
175 88 -157 0
111 29 95 0
58 -125 -47 0
125 -138 -151 0
126 -135 -138 0
77 -89 -83 0
11 -6 -27 0
42 63 -187 0
84 -86 -96 0
162 -79 -200 0
135 -64 -123 0
130 -105 -50 0
169 -27 -154 0
147 43 167 0
16 -135 -148 0
58 5 60 0
131 87 -104 0
25 -52 -107 0
127 187 -103 0
181 -20 -98 0
142 176 66 0
40 122 -118 0
91 -49 -9 0
90 64 5 0
72 19 -71 0
-9 -170 -35 0
154 -84 -39 0
31 92 -109 0
-71 -47 -110 0
103 20 -186 0
44 -51 -103 0
69 194 -50 0
176 165 -67 0
111 192 -164 0
4 24 -166 0
-170 -8 -121 0
198 41 57 0
59 -91 -190 0
37 76 183 0
-121 -8 -32 0
56 55 -67 0
33 42 -1 0
168 -78 -198 0
198 147 186 0
90 -68 -56 0
154 -55 -143 0
164 38 191 0
24 -187 -55 0
117 14 -94 0
-133 -105 -2 0
26 165 -71 0
-187 -31 -39 0
61 -109 -97 0
114 -190 -160 0
46 -158 -168 0
18 -97 -108 0
53 17 -60 0
106 95 176 0
121 32 -159 0
175 152 -32 0
24 -191 -69 0
-47 -169 -77 0
121 157 -17 0
88 110 -4 0
77 76 -31 0
34 25 149 0
171 123 -38 0
-182 -74 -64 0
139 -27 -94 0
20 165 -148 0
86 40 -106 0
98 72 -51 0
-179 -82 -56 0
-148 -6 -186 0
60 -4 -30 0
-109 -73 -113 0
-79 -150 -157 0
66 15 16 0
-23 -109 -129 0
137 17 -200 0
-105 -3 -36 0
131 43 22 0
-171 -113 -164 0
172 161 -8 0
-33 -102 -16 0
172 104 -192 0
-151 -2 -162 0
-169 -76 -21 0
130 107 -193 0
74 -47 -62 0
51 135 67 0
61 -95 -46 0
103 -32 -54 0
74 -197 -62 0
138 89 -35 0
154 31 -17 0
44 65 141 0
149 -26 -174 0
198 168 -123 0
62 -151 -149 0
85 29 -66 0
42 97 -118 0
72 52 80 0
177 55 -71 0
24 -80 -153 0
-111 -28 -156 0
52 199 -166 0
29 -42 -70 0
-115 -170 -179 0
89 39 -113 0
192 156 -106 0
54 -160 -99 0
126 12 -141 0
129 166 -85 0
88 177 -199 0
87 31 -13 0
15 79 -88 0
3 47 -29 0
62 -21 -76 0
1 -160 -78 0
-150 -64 -7 0
133 53 128 0
181 45 -143 0
24 -185 -160 0
17 -39 -75 0
185 -71 -94 0
181 51 -190 0
126 93 -9 0
17 34 -99 0
2 -182 -184 0
152 76 -13 0
10 174 -45 0
95 -49 -42 0
7 159 -157 0
29 43 -6 0
56 162 -123 0
127 115 -20 0
70 -197 -163 0
140 96 -78 0
187 -79 -92 0
16 -123 -32 0
95 -185 -11 0
192 -40 -49 0
36 82 -56 0
-60 -196 -174 0
45 -167 -80 0
18 114 -30 0
132 20 -68 0
87 -118 -100 0
114 -137 -158 0
76 38 -12 0
134 -79 -29 0
-182 -59 -55 0
137 36 -199 0
110 -15 -158 0
40 114 -134 0
49 106 163 0
144 128 -159 0
193 143 -171 0
-148 -106 -36 0
-144 -128 -18 0
85 100 -79 0
71 53 -108 0
95 -13 -74 0
5 125 -116 0
-51 -192 -100 0
111 -110 -80 0
52 -122 -92 0
14 89 -196 0
31 -122 -168 0
49 -199 -180 0
149 40 -172 0
198 -25 -119 0
198 -117 -9 0
97 5 -100 0
89 193 -46 0
114 -163 -199 0
144 176 -110 0
188 -119 -69 0
135 86 -75 0
196 157 -176 0
32 31 155 0
124 43 60 0
142 24 25 0
55 110 -52 0
107 117 -42 0
46 153 -125 0
120 -45 -94 0
13 198 -26 0
22 42 -151 0
27 115 132 0
-129 -147 -98 0
3 -167 -107 0
169 -101 -69 0
93 16 -7 0
48 -2 -186 0
74 93 -56 0
-85 -138 -126 0
83 150 -156 0
179 114 54 0
21 199 -200 0
150 16 174 0
-153 -148 -165 0
105 -62 -89 0
54 56 141 0
61 31 12 0
27 37 -103 0
193 -138 -56 0
29 -16 -29 0
105 -76 -120 0
149 130 -138 0
48 139 4 0
142 -48 -188 0
122 60 144 0
50 107 48 0
127 -180 -13 0
-160 -150 -28 0
172 -12 -36 0
144 166 -25 0
24 -160 -114 0
28 140 -50 0
101 -17 -41 0
59 187 -93 0
-186 -35 -42 0
70 -177 -15 0
172 -83 -52 0
25 75 -155 0
-100 -48 -161 0
132 -191 -157 0
132 98 -194 0
104 -91 -73 0
179 69 -149 0
30 118 198 0
26 132 -41 0
16 -126 -156 0
-22 -129 -52 0
143 193 -79 0
53 41 105 0
195 18 -191 0
40 100 -39 0
125 101 -30 0
31 -113 -136 0
182 -97 -144 0
2 -179 -52 0
140 158 -133 0
65 34 38 0
119 55 115 0
134 135 126 0
8 -138 -128 0
19 73 110 0
153 187 -76 0
-120 -95 -126 0
18 -15 -84 0
189 185 -109 0
139 -33 -117 0
139 69 -9 0
131 127 -162 0
161 105 -37 0
104 105 -116 0
155 179 -90 0
26 92 51 0
167 162 -153 0
13 -181 -70 0
163 117 -129 0
-61 -35 -36 0
97 94 -133 0
12 135 -130 0
142 81 -194 0
22 141 1 0
14 105 -91 0
44 69 -68 0
71 90 -132 0
12 2 -19 0
48 -11 -189 0
175 78 185 0
-158 -167 -13 0
156 110 -27 0
83 150 187 0
-51 -12 -101 0
-186 -8 -79 0
-134 -50 -20 0
155 57 -43 0
32 137 -17 0
70 -109 -140 0
55 -17 -23 0
139 -43 -75 0
116 -40 -23 0
-138 -136 -193 0
79 93 -86 0
92 5 -38 0
114 185 -73 0
163 72 -48 0
66 2 -6 0
18 102 -181 0
126 164 -80 0
53 -12 -101 0
111 -157 -29 0
-188 -142 -186 0
18 37 69 0
161 -35 -171 0
180 -195 -22 0
79 -158 -173 0
150 149 -42 0
108 68 -72 0
75 -17 -17 0
18 111 -90 0
135 78 102 0
198 120 -143 0
36 193 -134 0
92 -114 -81 0
110 -78 -96 0
140 60 -166 0
76 177 20 0
133 171 -22 0
128 -142 -190 0
120 152 -154 0
29 73 107 0
60 -159 -180 0
98 -183 -59 0
186 188 -178 0
-116 -2 -142 0
-177 -188 -44 0
7 -28 -115 0
180 118 -34 0
-103 -88 -130 0
-188 -64 -154 0
38 -165 -43 0
66 102 -7 0
86 -10 -88 0
36 198 -148 0
6 -124 -60 0
148 65 -98 0
82 117 -159 0
110 102 -176 0
160 -77 -176 0
114 -178 -106 0
69 50 -74 0
122 137 -141 0
47 -10 -74 0
122 -119 -51 0
62 172 -131 0
58 133 53 0
84 107 -113 0
165 -46 -112 0
163 54 -119 0
46 163 -87 0
161 21 -54 0
200 -64 -94 0
38 164 -108 0
118 53 -192 0
192 48 -150 0
9 -167 -165 0
12 155 -195 0
53 -70 -133 0
187 -56 -87 0
147 1 128 0
94 -146 -113 0
38 -199 -122 0
70 34 -64 0
157 -9 -186 0
172 -79 -188 0
110 -46 -27 0
199 147 -110 0
31 10 48 0
-44 -35 -189 0
194 65 -155 0
200 -96 -99 0
-5 -103 -190 0
38 -199 -103 0
127 -150 -8 0
-32 -43 -173 0
196 131 -178 0
73 107 -44 0
156 54 -27 0
169 64 -34 0
162 110 -126 0
5 20 4 0
184 -91 -55 0
9 165 -150 0
108 158 -118 0
153 178 -109 0
80 94 -193 0
-82 -21 -40 0
111 -136 -152 0
47 -75 -13 0
47 -188 -116 0
186 -33 -30 0
-68 -156 -157 0
123 9 -166 0
112 -153 -118 0
75 118 40 0
172 -161 -141 0
103 196 160 0
54 180 -170 0
59 -115 -4 0
127 -4 -2 0
6 -99 -84 0
-76 -104 -74 0
77 145 -44 0
197 2 -79 0
197 123 -39 0
50 33 -83 0
100 113 -116 0
124 198 -123 0
10 -105 -138 0
140 150 181 0
98 -113 -151 0
105 5 -101 0
170 27 3 0
113 141 189 0
-77 -3 -95 0
-174 -13 -129 0
2 160 198 0
-97 -3 -68 0
109 -183 -54 0
80 81 -51 0
127 179 -6 0
165 102 -169 0
150 108 -21 0
81 133 -95 0
194 124 -179 0
25 154 -51 0
135 102 -181 0
170 -129 -77 0
168 141 -48 0
140 -181 -46 0
70 71 12 0
106 22 101 0
114 159 -169 0
199 -85 -70 0
194 -43 -168 0
137 35 -16 0
141 103 104 0
122 -194 -65 0
69 -168 -6 0
43 39 187 0
65 -75 -51 0
137 -172 -85 0
120 29 -82 0
167 174 -88 0
-111 -151 -68 0
77 -98 -148 0
127 -181 -158 0
41 -130 -88 0
116 -10 -55 0
44 -103 -65 0
130 -3 -78 0
-144 -40 -109 0
95 128 -173 0
137 192 -124 0
14 -103 -192 0
187 175 -170 0
58 -94 -42 0
66 65 -101 0
-36 -39 -83 0
-79 -13 -144 0
55 50 -157 0
142 -189 -178 0
15 189 -22 0
181 -83 -21 0
145 61 183 0
-4 -84 -54 0
110 -88 -114 0
42 -174 -118 0
17 17 -120 0
77 191 -73 0
125 188 -153 0
90 -178 -120 0
141 143 -78 0
116 -172 -129 0
84 -158 -36 0
192 13 8 0
191 178 177 0
109 -183 -87 0
102 -196 -195 0
-58 -52 -126 0
167 -15 -133 0
7 149 -96 0
120 -136 -183 0
195 -180 -136 0
139 -11 -64 0
50 119 49 0
116 -101 -131 0
170 88 -46 0
1 79 -83 0
147 -116 -157 0
121 133 -5 0
24 25 -28 0
81 79 27 0
-33 -54 -127 0
161 76 -111 0
84 -80 -108 0
8 -96 -130 0
-164 -183 -104 0
96 123 -66 0
33 -168 -78 0
31 192 21 0
123 150 38 0
72 -52 -35 0
198 51 -187 0
41 50 67 0
145 55 -197 0
177 -194 -15 0
166 54 -197 0
-99 -184 -64 0
190 -82 -99 0
7 -108 -176 0
65 115 -183 0
67 59 -28 0
69 -183 -152 0
-78 -63 -25 0
18 57 -49 0
35 -184 -114 0
160 11 67 0
168 30 60 0
112 -83 -49 0
13 -45 -61 0
-34 -185 -146 0
77 70 18 0
120 84 -173 0
-145 -70 -181 0
87 64 -135 0
73 96 -180 0
-18 -189 -105 0
158 -138 -111 0
82 -196 -194 0
-151 -104 -197 0
151 167 42 0
187 -93 -192 0
107 -80 -157 0
5 -71 -151 0
136 62 -14 0
104 -38 -100 0
135 -86 -45 0
191 -188 -37 0
147 5 -49 0
40 149 -13 0
13 198 -88 0
20 -143 -153 0
136 -20 -183 0
179 87 59 0
173 -103 -39 0
59 -148 -174 0
72 153 24 0
186 38 -183 0
52 -35 -176 0
119 -193 -109 0
76 -151 -57 0
50 35 -13 0
106 -15 -136 0
135 6 -124 0
110 -13 -74 0
184 -121 -15 0
134 2 -159 0
184 147 -81 0
188 -38 -105 0
82 -56 -171 0
187 -124 -179 0
188 169 184 0
144 159 -162 0
193 6 77 0
69 -119 -57 0
132 -85 -135 0
57 145 -129 0
117 -102 -103 0
69 40 59 0
64 124 -41 0
30 -153 -23 0
182 102 139 0
173 -4 -119 0
132 54 68 0
198 111 -4 0
-65 -166 -153 0
42 187 -84 0
182 128 -132 0
112 69 -148 0
10 -136 -107 0
190 102 44 0
50 -71 -87 0
87 188 -17 0
197 41 -143 0
48 -41 -152 0
81 -136 -179 0
165 -137 -134 0
-73 -83 -153 0
38 -74 -13 0
49 -176 -70 0
92 114 63 0
182 -199 -89 0
120 63 39 0
-16 -24 -94 0
29 144 -39 0
26 136 -162 0
175 48 -187 0
157 -87 -98 0
169 40 -43 0
-116 -81 -196 0
145 -19 -165 0
193 11 -127 0
-185 -142 -181 0
160 -111 -21 0
113 139 -14 0
115 16 -140 0
46 130 -125 0
60 56 -61 0
82 -4 -148 0
56 -52 -148 0
57 -120 -74 0
139 -22 -59 0
119 37 14 0
98 171 -9 0
64 -108 -126 0
149 114 -60 0
103 164 -111 0
3 -145 -58 0
116 145 149 0
168 158 -138 0
70 168 -165 0
148 97 -119 0
-103 -152 -6 0
169 -59 -180 0
39 -163 -183 0
102 -68 -111 0
128 -96 -97 0
136 106 37 0
16 105 -48 0
90 112 174 0
62 53 -198 0
-149 -185 -124 0
-54 -10 -3 0
-175 -91 -163 0
184 47 130 0
159 67 -56 0
146 58 -162 0
-107 -24 -146 0
160 -128 -167 0
125 103 -93 0
179 168 -125 0
12 -51 -23 0
131 111 -106 0
11 54 -116 0
72 -116 -185 0
14 -23 -67 0
11 -154 -142 0
200 -68 -115 0
-91 -145 -13 0
26 -25 -41 0
171 -154 -84 0
23 127 -28 0
158 156 2 0
30 152 158 0
31 69 -151 0
27 -103 -70 0
178 -18 -39 0
40 135 155 0
143 36 -27 0
3 187 -70 0
174 -32 -4 0
82 117 -131 0
115 -51 -123 0
106 54 -46 0
74 -168 -120 0
-160 -129 -130 0
129 -74 -87 0
101 -58 -32 0
31 191 -176 0
104 184 167 0
12 144 -124 0
122 -75 -98 0
134 -145 -138 0
85 119 -191 0
26 -39 -144 0
16 -194 -70 0
102 -179 -98 0
52 -133 -128 0
171 -42 -185 0
50 185 186 0
110 189 -165 0
4 102 -183 0
33 -146 -11 0
27 59 -135 0
