NAME: euclid
TYPE: TSP
DIMENSION: 20
EDGE_WEIGHT_TYPE: EXPLICIT
EDGE_WEIGHT_FORMAT: UPPER_ROW
EDGE_WEIGHT_SECTION
72 101 212 139 113 282 101 58 98 18 67 259 105 58 57 291 146 364 95
171 151 210 146 354 171 71 84 89 40 265 141 82 59 324 85 398 166
291 69 106 196 59 148 157 83 152 250 152 140 152 238 247 305 20
346 212 486 311 221 136 225 145 239 291 233 209 343 164 408 294
175 144 39 164 217 123 202 319 137 153 173 294 274 357 56
295 155 170 81 106 108 152 213 171 166 181 231 254 120
183 305 353 266 344 414 264 293 315 350 415 393 192
125 185 86 166 305 106 114 134 296 235 363 39
138 71 95 311 70 13 12 349 110 422 135
105 46 181 200 145 129 247 162 319 162
80 256 107 68 72 281 164 353 77
226 161 103 85 285 123 358 152
363 315 305 121 339 173 267
59 82 381 165 452 134
25 348 122 421 127
346 101 419 141
408 73 258
481 239
325
EOF
