NAME: rs_matrix_find
TYPE: TSP
DIMENSION: 20
EDGE_WEIGHT_TYPE: EXPLICIT
EDGE_WEIGHT_FORMAT: UPPER_ROW
EDGE_WEIGHT_SECTION
959 52 63 320 482 212 150 390 857 442 396 976 854 426 299 82 531 202 531
937 417 972 508 158 745 397 149 474 305 127 286 37 736 49 121 370 698
108 403 945 93 614 10 994 514 543 66 850 750 534 342 536 637 205
382 643 200 856 58 816 954 67 715 645 900 836 822 493 630 492
831 496 378 804 150 364 463 965 736 722 336 331 663 78 945
870 869 784 552 653 541 5 979 731 675 674 701 236 180
482 206 677 588 694 473 209 452 159 921 387 742 460
500 225 821 829 916 659 133 910 220 428 914 325
86 608 650 221 535 436 135 327 757 534 1
537 832 637 85 807 746 597 449 534 333
947 940 452 961 696 992 468 726 21
276 234 939 250 515 520 743 498
989 602 473 587 338 631 468
117 847 560 855 871 676
926 481 643 895 840
970 981 92 411
173 314 147
993 594
851
EOF
